     Program PHONON v.7.2 starts on 27Apr2023 at 23: 1:41

     Waiting for input...
     Reading input from standard input

     Reading xml data from directory:

     ./tmp/gr.save/

     Subspace diagonalization in iterative solution of the eigenvalue problem:
     a serial algorithm will be used

     file C.pbe-n-kjpaw_psl.1.0.0.UPF: wavefunction(s)  2S 2P renormalized

     IMPORTANT: XC functional enforced from input :
     Exchange-correlation= PBE
                           (   1   4   3   4   0   0   0)
     Any further DFT definition will be discarded
     Please, verify this is what you really want

     Using Slab Decomposition

 ----2D----2D----2D----2D----2D----2D----2D----2D----2D----2D----2D----2D
  The code is running with the 2D cutoff
  Please refer to:
  Sohier, T., Calandra, M., & Mauri, F. (2017),
  Density functional perturbation theory for gated two-dimensional heterostructures:
  Theoretical developments and application to flexural phonons in graphene.
 ----2D----2D----2D----2D----2D----2D----2D----2D----2D----2D----2D----2D

     Check: negative core charge=   -0.000005

     negative rho (up, down):  1.302E-04 0.000E+00
     Reading collected, re-writing distributed wavefunctions in ./tmp/

     Dynamical matrices for ( 4, 4, 1)  uniform grid of q-points
     (   4 q-points):
       N         xq(1)         xq(2)         xq(3)
       1   0.000000000   0.000000000   0.000000000
       2   0.000000000   0.288675135   0.000000000
       3   0.000000000  -0.577350269   0.000000000
       4   0.250000000   0.433012702   0.000000000

     Calculation of q =    0.0000000   0.0000000   0.0000000

     phonon calc.

     bravais-lattice index     =            4
     lattice parameter (alat)  =       4.6561  a.u.
     unit-cell volume          =     532.1899 (a.u.)^3
     number of atoms/cell      =            2
     number of atomic types    =            1
     kinetic-energy cut-off    =      80.0000  Ry
     charge density cut-off    =     320.0000  Ry
     convergence threshold     =      1.0E-14
     beta                      =       0.7000
     number of iterations used =            4
     Exchange-correlation= PBE
                           (   1   4   3   4   0   0   0)

     celldm(1)=    4.65611  celldm(2)=    0.00000  celldm(3)=    6.08790
     celldm(4)=    0.00000  celldm(5)=    0.00000  celldm(6)=    0.00000

     crystal axes: (cart. coord. in units of alat)
               a(1) = (  1.0000  0.0000  0.0000 )
               a(2) = ( -0.5000  0.8660  0.0000 )
               a(3) = (  0.0000  0.0000  6.0879 )

     reciprocal axes: (cart. coord. in units 2 pi/alat)
               b(1) = (  1.0000  0.5774 -0.0000 )
               b(2) = (  0.0000  1.1547  0.0000 )
               b(3) = (  0.0000 -0.0000  0.1643 )

     Atoms inside the unit cell:

     Cartesian axes

     site n.  atom      mass           positions (alat units)
        1     C   12.0107   tau(    1) = (    0.00000    0.57735    3.04395  )
        2     C   12.0107   tau(    2) = (    0.50000    0.28868    3.04395  )

     Computing dynamical matrix for
                    q = (   0.0000000   0.0000000   0.0000000 )

     25 Sym.Ops. (with q -> -q+G )

     G cutoff =  175.7260  (  51311 G-vectors)     FFT grid: ( 27, 27,162)

     number of k points=    19  Marzari-Vanderbilt smearing, width (Ry)=  0.0200

     PseudoPot. # 1 for C  read from file:
     ../../C.pbe-n-kjpaw_psl.1.0.0.UPF
     MD5 check sum: 5f16ad9a65e90284d1d834d4ab3b0f7d
     Pseudo is Projector augmented-wave + core cor, Zval =  4.0
     Generated using &quot;atomic&quot; code by A. Dal Corso  v.6.3
     Shape of augmentation charge: PSQ
     Using radial grid of 1073 points,  4 beta functions with:
                l(1) =   0
                l(2) =   0
                l(3) =   1
                l(4) =   1
     Q(r) pseudized with 0 coefficients

     Mode symmetry, D_6h(6/mmm) point group:

     Atomic displacements:
     There are    4 irreducible representations

     Representation     1      1 modes -  To be done

[...]

     Alpha used in Ewald sum =   2.8000

     negative rho (up, down):  1.302E-04 0.000E+00

     Representation #   1 mode #   1

     Self-consistent Calculation

     Pert. #  1: Fermi energy shift (Ry) =     8.8233E-24     0.0000E+00

      thresh= 1.000E-02 alpha_mix =  0.700 |ddv_scf|^2 =  1.520E-06

[...]

     End of self-consistent calculation

     Convergence has been achieved

     Representation #   2 modes #   2   3

[...]

     Representation #   4 modes #   5   6

[...]

     Pert. #  1: Fermi energy shift (Ry) =    -2.1507E-23    -9.7958E-39
     Pert. #  2: Fermi energy shift (Ry) =     1.0478E-23    -7.8366E-39

[...]

     Number of q in the star =    1
     List of q in the star:
          1   0.000000000   0.000000000   0.000000000

     Diagonalizing the dynamical matrix

     q = (    0.000000000   0.000000000   0.000000000 )

     freq (    1) =      -2.472868 [THz] =     -82.485982 [cm-1]
     freq (    2) =      -2.472868 [THz] =     -82.485982 [cm-1]
     freq (    3) =       2.112406 [THz] =      70.462275 [cm-1]
     freq (    4) =      26.243923 [THz] =     875.403041 [cm-1]
     freq (    5) =      44.659360 [THz] =    1489.675913 [cm-1]
     freq (    6) =      44.659360 [THz] =    1489.675913 [cm-1]

     Mode symmetry, D_6h(6/mmm) point group:

     freq (   1-   2) =        -82.5  [cm-1]   --> E_1u            I
     freq (   3-   3) =         70.5  [cm-1]   --> A_2u            I
     freq (   4-   4) =        875.4  [cm-1]   --> B_1g
     freq (   5-   6) =       1489.7  [cm-1]   --> E_2g            R

[...]

     Title:
     phonon calc.

     bravais-lattice index     =            4
     lattice parameter (alat)  =       4.6561  a.u.
     unit-cell volume          =     532.1899 (a.u.)^3
     number of atoms/cell      =            2
     number of atomic types    =            1
     number of electrons       =         8.00
     number of Kohn-Sham states=            8
     kinetic-energy cutoff     =      80.0000  Ry
     charge density cutoff     =     320.0000  Ry
     Exchange-correlation= PBE
                           (   1   4   3   4   0   0   0)

[...]

     atomic species   valence    mass     pseudopotential
        C              4.00    12.01070     C ( 1.00)

     24 Sym. Ops., with inversion, found

[...]

     site n.     atom                  positions (alat units)
         1           C   tau(   1) = (   0.0000000   0.5773503   3.0439478  )
         2           C   tau(   2) = (   0.5000000   0.2886751   3.0439478  )

[...]

     Number of k-points >= 100: set verbosity='high' to print them.

[...]

     The potential is recalculated from file :
     ./tmp/_ph0/gr.save/charge-density

     negative rho (up, down):  1.302E-04 0.000E+00
     Starting wfcs are    8 atomic wfcs
     Checking if some PAW data can be deallocated...

     Band Structure Calculation
     Davidson diagonalization with overlap

     ethr =  1.25E-10,  avg # of iterations = 23.5

     End of band structure calculation

     Number of k-points >= 100: set verbosity='high' to print the bands.

     the Fermi energy is    -4.1967 ev

     Writing config to output data dir ./tmp/_ph0/gr.save/

[...]

      4 Sym.Ops. (no q -> -q+G )

[...]

     Mode symmetry, C_2v (mm2)  point group:

[...]

     freq (   1-   1) =        172.5  [cm-1]   --> B_2  D_4  S_4
     freq (   2-   2) =        456.9  [cm-1]   --> B_1  D_3  S_3
     freq (   3-   3) =        788.2  [cm-1]   --> A_1  D_1  S_1
     freq (   4-   4) =        821.8  [cm-1]   --> B_2  D_4  S_4
     freq (   5-   5) =       1470.4  [cm-1]   --> B_1  D_3  S_3
     freq (   6-   6) =       1587.5  [cm-1]   --> A_1  D_1  S_1

[...]

     number of k points=    86  Marzari-Vanderbilt smearing, width (Ry)=  0.0200
                       cart. coord. in units 2pi/alat
        k(    1) = (   0.0000000   0.0000000   0.0000000), wk =   0.0138889
        k(    2) = (   0.0000000  -0.5773503   0.0000000), wk =   0.0000000
        k(    3) = (   0.0000000   0.0962250   0.0000000), wk =   0.0277778
        k(    4) = (   0.0000000  -0.4811252   0.0000000), wk =   0.0000000
        k(    5) = (   0.0000000   0.1924501   0.0000000), wk =   0.0277778
        k(    6) = (   0.0000000  -0.3849002   0.0000000), wk =   0.0000000
        k(    7) = (   0.0000000   0.2886751   0.0000000), wk =   0.0277778
        k(    8) = (   0.0000000  -0.2886751   0.0000000), wk =   0.0000000
        k(    9) = (   0.0000000   0.3849002   0.0000000), wk =   0.0277778
        k(   10) = (   0.0000000  -0.1924501   0.0000000), wk =   0.0000000
        k(   11) = (   0.0000000   0.4811252   0.0000000), wk =   0.0277778
        k(   12) = (   0.0000000  -0.0962250   0.0000000), wk =   0.0000000
        k(   13) = (   0.0000000  -0.5773503   0.0000000), wk =   0.0138889
        k(   14) = (   0.0000000  -1.1547005   0.0000000), wk =   0.0000000
        k(   15) = (   0.0833333   0.1443376   0.0000000), wk =   0.0555556
        k(   16) = (   0.0833333  -0.4330127   0.0000000), wk =   0.0000000
        k(   17) = (   0.0833333   0.2405626   0.0000000), wk =   0.0555556
        k(   18) = (   0.0833333  -0.3367877   0.0000000), wk =   0.0000000
        k(   19) = (   0.0833333   0.3367877   0.0000000), wk =   0.0555556
        k(   20) = (   0.0833333  -0.2405626   0.0000000), wk =   0.0000000
        k(   21) = (   0.0833333   0.4330127   0.0000000), wk =   0.0555556
        k(   22) = (   0.0833333  -0.1443376   0.0000000), wk =   0.0000000
        k(   23) = (   0.0833333   0.5292377   0.0000000), wk =   0.0555556
        k(   24) = (   0.0833333  -0.0481125   0.0000000), wk =   0.0000000
        k(   25) = (   0.1666667   0.2886751   0.0000000), wk =   0.0555556
        k(   26) = (   0.1666667  -0.2886751   0.0000000), wk =   0.0000000
        k(   27) = (   0.1666667   0.3849002   0.0000000), wk =   0.0555556
        k(   28) = (   0.1666667  -0.1924501   0.0000000), wk =   0.0000000
        k(   29) = (   0.1666667   0.4811252   0.0000000), wk =   0.0555556
        k(   30) = (   0.1666667  -0.0962250   0.0000000), wk =   0.0000000
        k(   31) = (   0.1666667   0.5773503   0.0000000), wk =   0.0277778
        k(   32) = (   0.1666667   0.0000000   0.0000000), wk =   0.0000000
        k(   33) = (   0.2500000   0.4330127   0.0000000), wk =   0.0555556
        k(   34) = (   0.2500000  -0.1443376   0.0000000), wk =   0.0000000
        k(   35) = (   0.2500000   0.5292377   0.0000000), wk =   0.0555556
        k(   36) = (   0.2500000  -0.0481125   0.0000000), wk =   0.0000000
        k(   37) = (   0.3333333   0.5773503   0.0000000), wk =   0.0277778
        k(   38) = (   0.3333333   0.0000000   0.0000000), wk =   0.0000000
        k(   39) = (  -0.0833333  -0.0481125   0.0000000), wk =   0.0555556
        k(   40) = (  -0.0833333  -0.6254628   0.0000000), wk =   0.0000000
        k(   41) = (  -0.1666667  -0.0962250   0.0000000), wk =   0.0555556
        k(   42) = (  -0.1666667  -0.6735753   0.0000000), wk =   0.0000000
        k(   43) = (  -0.2500000  -0.1443376   0.0000000), wk =   0.0555556
        k(   44) = (  -0.2500000  -0.7216878   0.0000000), wk =   0.0000000
        k(   45) = (  -0.3333333  -0.1924501   0.0000000), wk =   0.0555556
        k(   46) = (  -0.3333333  -0.7698004   0.0000000), wk =   0.0000000
        k(   47) = (  -0.4166667  -0.2405626   0.0000000), wk =   0.0555556
        k(   48) = (  -0.4166667  -0.8179129   0.0000000), wk =   0.0000000
        k(   49) = (   0.5000000   0.2886751   0.0000000), wk =   0.0277778
        k(   50) = (   0.5000000  -0.2886751   0.0000000), wk =   0.0000000
        k(   51) = (   0.1666667   0.0000000   0.0000000), wk =   0.0277778
        k(   52) = (   0.1666667  -0.5773503   0.0000000), wk =   0.0000000
        k(   53) = (  -0.1666667  -0.1924501   0.0000000), wk =   0.0555556
        k(   54) = (  -0.1666667  -0.7698004   0.0000000), wk =   0.0000000
        k(   55) = (   0.2500000  -0.0481125   0.0000000), wk =   0.0555556
        k(   56) = (   0.2500000  -0.6254628   0.0000000), wk =   0.0000000
        k(   57) = (  -0.2500000  -0.2405626   0.0000000), wk =   0.0555556
        k(   58) = (  -0.2500000  -0.8179129   0.0000000), wk =   0.0000000
        k(   59) = (   0.3333333  -0.0962250   0.0000000), wk =   0.0555556
        k(   60) = (   0.3333333  -0.6735753   0.0000000), wk =   0.0000000
[...]
        k(   72) = (  -0.2500000  -0.9141379   0.0000000), wk =   0.0000000
        k(   73) = (   0.4166667  -0.0481125   0.0000000), wk =   0.0555556
        k(   74) = (   0.4166667  -0.6254628   0.0000000), wk =   0.0000000
        k(   75) = (  -0.3333333  -0.3849002   0.0000000), wk =   0.0555556
        k(   76) = (  -0.3333333  -0.9622504   0.0000000), wk =   0.0000000
        k(   77) = (   0.5000000  -0.0962250   0.0000000), wk =   0.0555556
        k(   78) = (   0.5000000  -0.6735753   0.0000000), wk =   0.0000000
        k(   79) = (  -0.4166667  -0.4330127   0.0000000), wk =   0.0555556
        k(   80) = (  -0.4166667  -1.0103630   0.0000000), wk =   0.0000000
        k(   81) = (   0.5000000   0.0000000   0.0000000), wk =   0.0277778
        k(   82) = (   0.5000000  -0.5773503   0.0000000), wk =   0.0000000
        k(   83) = (  -0.3333333  -0.4811252   0.0000000), wk =   0.0555556
        k(   84) = (  -0.3333333  -1.0584755   0.0000000), wk =   0.0000000
        k(   85) = (   0.5833333  -0.0481125   0.0000000), wk =   0.0555556
        k(   86) = (   0.5833333  -0.6254628   0.0000000), wk =   0.0000000

[...]

          k = 0.0000 0.0000 0.0000 (  6489 PWs)   bands (ev):

   -23.7846 -11.8755  -7.2891  -7.2891  -1.0297  -0.2280   1.3391   2.3023

[...]

          k =-0.0833-0.0481 0.0000 (  6493 PWs)   bands (ev):

[...]

          k =-0.3333-1.0585 0.0000 (  6420 PWs)   bands (ev):

[...]

          k = 0.5833-0.6255 0.0000 (  6439 PWs)   bands (ev):

   -20.7275 -13.7508 -11.7328  -8.3260   0.2059   3.1990   4.0032   5.5808

[...]

      9 Sym.Ops. (with q -> -q+G )

[...]

     Mode symmetry, D_2h (mmm)  point group:

[...]

     Mode symmetry, D_2h (mmm)  point group:

     freq (   1-   1) =        474.2  [cm-1]   --> B_3g
     freq (   2-   2) =        618.9  [cm-1]   --> B_1g
     freq (   3-   3) =        633.8  [cm-1]   --> B_1u
     freq (   4-   4) =       1331.5  [cm-1]   --> B_2u
     freq (   5-   5) =       1346.6  [cm-1]   --> A_g
     freq (   6-   6) =       1396.1  [cm-1]   --> B_3u

     Calculation of q =    0.2500000   0.4330127   0.0000000

     Using Slab Decomposition

     Title:
     phonon calc.

     bravais-lattice index     =            4
     lattice parameter (alat)  =       4.6561  a.u.
     unit-cell volume          =     532.1899 (a.u.)^3
     number of atoms/cell      =            2
     number of atomic types    =            1
     number of electrons       =         8.00
     number of Kohn-Sham states=            8
     kinetic-energy cutoff     =      80.0000  Ry
     charge density cutoff     =     320.0000  Ry
     Exchange-correlation= PBE
                           (   1   4   3   4   0   0   0)

[...]

     atomic species   valence    mass     pseudopotential
        C              4.00    12.01070     C ( 1.00)

     24 Sym. Ops., with inversion, found

[...]

     site n.     atom                  positions (alat units)
         1           C   tau(   1) = (   0.0000000   0.5773503   3.0439478  )
         2           C   tau(   2) = (   0.5000000   0.2886751   3.0439478  )

[...]

     Number of k-points >= 100: set verbosity='high' to print them.

     Check: negative core charge=   -0.000005

     The potential is recalculated from file :
     ./tmp/_ph0/gr.save/charge-density

     negative rho (up, down):  1.302E-04 0.000E+00
     Starting wfcs are    8 atomic wfcs
     Checking if some PAW data can be deallocated...

     Band Structure Calculation
     Davidson diagonalization with overlap

     ethr =  1.25E-10,  avg # of iterations = 23.3

     End of band structure calculation

     Number of k-points >= 100: set verbosity='high' to print the bands.

     the Fermi energy is    -4.1967 ev

     Writing config to output data dir ./tmp/_ph0/gr.save/

     phonon calc.

     bravais-lattice index     =            4
     lattice parameter (alat)  =       4.6561  a.u.
     unit-cell volume          =     532.1899 (a.u.)^3
     number of atoms/cell      =            2
     number of atomic types    =            1
     kinetic-energy cut-off    =      80.0000  Ry
     charge density cut-off    =     320.0000  Ry
     convergence threshold     =      1.0E-14
     beta                      =       0.7000
     number of iterations used =            4
     Exchange-correlation= PBE
                           (   1   4   3   4   0   0   0)

     celldm(1)=    4.65611  celldm(2)=    0.00000  celldm(3)=    6.08790
     celldm(4)=    0.00000  celldm(5)=    0.00000  celldm(6)=    0.00000

     crystal axes: (cart. coord. in units of alat)
               a(1) = (  1.0000  0.0000  0.0000 )
               a(2) = ( -0.5000  0.8660  0.0000 )
               a(3) = (  0.0000  0.0000  6.0879 )

     reciprocal axes: (cart. coord. in units 2 pi/alat)
               b(1) = (  1.0000  0.5774 -0.0000 )
               b(2) = (  0.0000  1.1547  0.0000 )
               b(3) = (  0.0000 -0.0000  0.1643 )

     Atoms inside the unit cell:

     Cartesian axes

     site n.  atom      mass           positions (alat units)
        1     C   12.0107   tau(    1) = (    0.00000    0.57735    3.04395  )
        2     C   12.0107   tau(    2) = (    0.50000    0.28868    3.04395  )

     Computing dynamical matrix for
                    q = (   0.2500000   0.4330127   0.0000000 )

      4 Sym.Ops. (no q -> -q+G )

     G cutoff =  175.7260  (  51311 G-vectors)     FFT grid: ( 27, 27,162)

     number of k points=   156  Marzari-Vanderbilt smearing, width (Ry)=  0.0200

     PseudoPot. # 1 for C  read from file:
     ../../C.pbe-n-kjpaw_psl.1.0.0.UPF
     MD5 check sum: 5f16ad9a65e90284d1d834d4ab3b0f7d
     Pseudo is Projector augmented-wave + core cor, Zval =  4.0
     Generated using &quot;atomic&quot; code by A. Dal Corso  v.6.3
     Shape of augmentation charge: PSQ
     Using radial grid of 1073 points,  4 beta functions with:
                l(1) =   0
                l(2) =   0
                l(3) =   1
                l(4) =   1
     Q(r) pseudized with 0 coefficients

[...]

     Atomic displacements:
     There are    6 irreducible representations

[...]

     Representation     6      1 modes -  To be done

     Alpha used in Ewald sum =   2.8000

     negative rho (up, down):  1.302E-04 0.000E+00

[...]

     Representation #   6 mode #   6

     Self-consistent Calculation

[...]

      thresh= 2.635E-07 alpha_mix =  0.700 |ddv_scf|^2 =  5.630E-15

     End of self-consistent calculation

     Convergence has been achieved

     Number of q in the star =    6
     List of q in the star:
          1   0.250000000   0.433012702   0.000000000
          2  -0.250000000  -0.433012702   0.000000000
          3   0.250000000  -0.433012702   0.000000000
          4   0.500000000   0.000000000   0.000000000
          5  -0.500000000   0.000000000   0.000000000
          6  -0.250000000   0.433012702   0.000000000

     Diagonalizing the dynamical matrix

     q = (    0.250000000   0.433012702   0.000000000 )

     freq (    1) =      11.599765 [THz] =     386.926516 [cm-1]
     freq (    2) =      20.357592 [THz] =     679.056170 [cm-1]
     freq (    3) =      25.250511 [THz] =     842.266380 [cm-1]
     freq (    4) =      32.439280 [THz] =    1082.057897 [cm-1]
     freq (    5) =      40.847300 [THz] =    1362.519269 [cm-1]
     freq (    6) =      42.350907 [THz] =    1412.674197 [cm-1]

     Mode symmetry, C_2v (mm2)  point group:

     freq (   1-   1) =        386.9  [cm-1]   --> B_2  D_4  S_4
     freq (   2-   2) =        679.1  [cm-1]   --> A_2  D_2  S_2
     freq (   3-   3) =        842.3  [cm-1]   --> B_1  D_3  S_3
     freq (   4-   4) =       1082.1  [cm-1]   --> A_1  D_1  S_1
     freq (   5-   5) =       1362.5  [cm-1]   --> A_1  D_1  S_1
     freq (   6-   6) =       1412.7  [cm-1]   --> B_1  D_3  S_3

     General routines

     Parallel routines

     INITIALIZATION:

     DYNAMICAL MATRIX:

                                        0.00s GPU  (    7955 calls)

                                        0.00s GPU  (    1308 calls)

      General routines

      Additional routines
                                        0.00s GPU  (   82527 calls)
                                        0.00s GPU  (   82527 calls)

   This run was terminated on:  23:53:11  27Apr2023

   JOB DONE.