     Program PHONON v.7.2 starts on 28Apr2023 at  1:15:53

     Reading input from 2.ph.in

     Reading xml data from directory:

     ./outdir/1c_ph.save/

     Subspace diagonalization in iterative solution of the eigenvalue problem:
     a serial algorithm will be used

     file C.pbe-n-kjpaw_psl.1.0.0.UPF: wavefunction(s)  2S 2P renormalized

     IMPORTANT: XC functional enforced from input :
     Exchange-correlation= PBE
                           (   1   4   3   4   0   0   0)
     Any further DFT definition will be discarded
     Please, verify this is what you really want

     Using Slab Decomposition

     Check: negative core charge=   -0.000003

     negative rho (up, down):  1.372E-04 0.000E+00
     Reading collected, re-writing distributed wavefunctions in ./outdir/

     Dynamical matrices for ( 1, 1, 4)  uniform grid of q-points
     (   3 q-points):
       N         xq(1)         xq(2)         xq(3)
       1   0.000000000   0.000000000   0.000000000
       2   0.000000000   0.000000000   1.945979606
       3   0.000000000   0.000000000  -3.891959212

     Calculation of q =    0.0000000   0.0000000   0.0000000

     C chain phonon calc.

     bravais-lattice index     =            6
     lattice parameter (alat)  =      18.8973  a.u.
     unit-cell volume          =     866.9585 (a.u.)^3
     number of atoms/cell      =            1
     number of atomic types    =            1
     kinetic-energy cut-off    =      80.0000  Ry
     charge density cut-off    =     320.0000  Ry
     convergence threshold     =      1.0E-12
     beta                      =       0.7000
     number of iterations used =            4
     Exchange-correlation= PBE
                           (   1   4   3   4   0   0   0)

     celldm(1)=   18.89726  celldm(2)=    0.00000  celldm(3)=    0.12847
     celldm(4)=    0.00000  celldm(5)=    0.00000  celldm(6)=    0.00000

     crystal axes: (cart. coord. in units of alat)
               a(1) = (  1.0000  0.0000  0.0000 )
               a(2) = (  0.0000  1.0000  0.0000 )
               a(3) = (  0.0000  0.0000  0.1285 )

     reciprocal axes: (cart. coord. in units 2 pi/alat)
               b(1) = (  1.0000  0.0000  0.0000 )
               b(2) = (  0.0000  1.0000  0.0000 )
               b(3) = (  0.0000  0.0000  7.7839 )

     Atoms inside the unit cell:

     Cartesian axes

     site n.  atom      mass           positions (alat units)
        1     C   12.0110   tau(    1) = (    0.00000    0.00000    0.00000  )

     Computing dynamical matrix for
                    q = (   0.0000000   0.0000000   0.0000000 )

     17 Sym.Ops. (with q -> -q+G )

     G cutoff = 2894.5961  (  83641 G-vectors)     FFT grid: (108,108, 15)

     number of k points=    26  Methfessel-Paxton smearing, width (Ry)=  0.0100

     PseudoPot. # 1 for C  read from file:
     /home/ubuntu/test/492/C.pbe-n-kjpaw_psl.1.0.0.UPF
     MD5 check sum: 5f16ad9a65e90284d1d834d4ab3b0f7d
     Pseudo is Projector augmented-wave + core cor, Zval =  4.0
     Generated using &quot;atomic&quot; code by A. Dal Corso  v.6.3
     Shape of augmentation charge: PSQ
     Using radial grid of 1073 points,  4 beta functions with:
                l(1) =   0
                l(2) =   0
                l(3) =   1
                l(4) =   1
     Q(r) pseudized with 0 coefficients

     Mode symmetry, D_4h(4/mmm) point group:

     Atomic displacements:
     There are    2 irreducible representations

     Representation     1      1 modes -  To be done

[...]

     Alpha used in Ewald sum =   2.8000

     negative rho (up, down):  1.372E-04 0.000E+00

     Representation #   1 mode #   1

     Self-consistent Calculation

     Pert. #  1: Fermi energy shift (Ry) =     2.1176E-22     0.0000E+00

      thresh= 1.000E-02 alpha_mix =  0.700 |ddv_scf|^2 =  9.411E-07

[...]

     End of self-consistent calculation

     Convergence has been achieved

     Representation #   2 modes #   2   3

[...]

     Pert. #  1: Fermi energy shift (Ry) =     0.0000E+00     0.0000E+00
     Pert. #  2: Fermi energy shift (Ry) =     0.0000E+00     0.0000E+00

[...]

     Number of q in the star =    1
     List of q in the star:
          1   0.000000000   0.000000000   0.000000000

     Diagonalizing the dynamical matrix

     q = (    0.000000000   0.000000000   0.000000000 )

     freq (    1) =       3.238692 [THz] =     108.031141 [cm-1]
     freq (    2) =       3.668159 [THz] =     122.356600 [cm-1]
     freq (    3) =       3.668159 [THz] =     122.356600 [cm-1]

[...]

     freq (   1-   1) =        108.0  [cm-1]   --> A_2u X_4' M_4'  I
     freq (   2-   3) =        122.4  [cm-1]   --> E_u  X_5' M_5'  I

[...]

     Title:
     C chain phonon calc.

     bravais-lattice index     =            6
     lattice parameter (alat)  =      18.8973  a.u.
     unit-cell volume          =     866.9585 (a.u.)^3
     number of atoms/cell      =            1
     number of atomic types    =            1
     number of electrons       =         4.00
     number of Kohn-Sham states=            6
     kinetic-energy cutoff     =      80.0000  Ry
     charge density cutoff     =     320.0000  Ry
     Exchange-correlation= PBE
                           (   1   4   3   4   0   0   0)

[...]

     atomic species   valence    mass     pseudopotential
        C              4.00    12.01100     C ( 1.00)

     16 Sym. Ops., with inversion, found

[...]

     site n.     atom                  positions (alat units)
         1           C   tau(   1) = (   0.0000000   0.0000000   0.0000000  )

[...]

     Number of k-points >= 100: set verbosity='high' to print them.

[...]

     The potential is recalculated from file :
     ./outdir/_ph0/1c_ph.save/charge-density

     negative rho (up, down):  1.372E-04 0.000E+00
     Starting wfcs are    4 atomic +    2 random wfcs
     Checking if some PAW data can be deallocated...

     Band Structure Calculation
     Davidson diagonalization with overlap

     ethr =  2.50E-10,  avg # of iterations = 35.8

     End of band structure calculation

     Number of k-points >= 100: set verbosity='high' to print the bands.

     the Fermi energy is    -4.5854 ev

     Writing config to output data dir ./outdir/_ph0/1c_ph.save/

[...]

      8 Sym.Ops. (no q -> -q+G )

[...]

     Mode symmetry, C_4v (4mm)  point group:

[...]

     Mode symmetry, C_4v (4mm)  point group:

     freq (   1-   2) =        331.9  [cm-1]   --> E    G_5 D_5
     freq (   3-   3) =       1787.3  [cm-1]   --> A_1  G_1 D_1

     Calculation of q =    0.0000000   0.0000000  -3.8919592

     Using Slab Decomposition

     Title:
     C chain phonon calc.

     bravais-lattice index     =            6
     lattice parameter (alat)  =      18.8973  a.u.
     unit-cell volume          =     866.9585 (a.u.)^3
     number of atoms/cell      =            1
     number of atomic types    =            1
     number of electrons       =         4.00
     number of Kohn-Sham states=            6
     kinetic-energy cutoff     =      80.0000  Ry
     charge density cutoff     =     320.0000  Ry
     Exchange-correlation= PBE
                           (   1   4   3   4   0   0   0)

[...]

     atomic species   valence    mass     pseudopotential
        C              4.00    12.01100     C ( 1.00)

     16 Sym. Ops., with inversion, found

[...]

     site n.     atom                  positions (alat units)
         1           C   tau(   1) = (   0.0000000   0.0000000   0.0000000  )

     number of k points=    52  Methfessel-Paxton smearing, width (Ry)=  0.0100
                       cart. coord. in units 2pi/alat
        k(    1) = (  -0.5000000  -0.5000000   0.0763129), wk =   0.0784314
        k(    2) = (  -0.5000000  -0.5000000  -3.8156463), wk =   0.0000000
        k(    3) = (  -0.5000000  -0.5000000   0.2289388), wk =   0.0784314
        k(    4) = (  -0.5000000  -0.5000000  -3.6630204), wk =   0.0000000
        k(    5) = (  -0.5000000  -0.5000000   0.3815646), wk =   0.0784314
        k(    6) = (  -0.5000000  -0.5000000  -3.5103946), wk =   0.0000000
        k(    7) = (  -0.5000000  -0.5000000   0.5341905), wk =   0.0784314
        k(    8) = (  -0.5000000  -0.5000000  -3.3577687), wk =   0.0000000
        k(    9) = (  -0.5000000  -0.5000000   0.6868163), wk =   0.0784314
        k(   10) = (  -0.5000000  -0.5000000  -3.2051429), wk =   0.0000000
        k(   11) = (  -0.5000000  -0.5000000   0.8394422), wk =   0.0784314
        k(   12) = (  -0.5000000  -0.5000000  -3.0525170), wk =   0.0000000
        k(   13) = (  -0.5000000  -0.5000000   0.9920680), wk =   0.0784314
        k(   14) = (  -0.5000000  -0.5000000  -2.8998912), wk =   0.0000000
        k(   15) = (  -0.5000000  -0.5000000   1.1446939), wk =   0.0784314
        k(   16) = (  -0.5000000  -0.5000000  -2.7472653), wk =   0.0000000
        k(   17) = (  -0.5000000  -0.5000000   1.2973197), wk =   0.0784314
        k(   18) = (  -0.5000000  -0.5000000  -2.5946395), wk =   0.0000000
        k(   19) = (  -0.5000000  -0.5000000   1.4499456), wk =   0.0784314
        k(   20) = (  -0.5000000  -0.5000000  -2.4420136), wk =   0.0000000
        k(   21) = (  -0.5000000  -0.5000000   1.6025714), wk =   0.0784314
        k(   22) = (  -0.5000000  -0.5000000  -2.2893878), wk =   0.0000000
        k(   23) = (  -0.5000000  -0.5000000   1.7551973), wk =   0.0784314
        k(   24) = (  -0.5000000  -0.5000000  -2.1367619), wk =   0.0000000
        k(   25) = (  -0.5000000  -0.5000000   1.9078231), wk =   0.0784314
        k(   26) = (  -0.5000000  -0.5000000  -1.9841361), wk =   0.0000000
        k(   27) = (  -0.5000000  -0.5000000   2.0604490), wk =   0.0784314
        k(   28) = (  -0.5000000  -0.5000000  -1.8315102), wk =   0.0000000
        k(   29) = (  -0.5000000  -0.5000000   2.2130748), wk =   0.0784314
        k(   30) = (  -0.5000000  -0.5000000  -1.6788844), wk =   0.0000000
        k(   31) = (  -0.5000000  -0.5000000   2.3657007), wk =   0.0784314
        k(   32) = (  -0.5000000  -0.5000000  -1.5262585), wk =   0.0000000
        k(   33) = (  -0.5000000  -0.5000000   2.5183265), wk =   0.0784314
        k(   34) = (  -0.5000000  -0.5000000  -1.3736327), wk =   0.0000000
        k(   35) = (  -0.5000000  -0.5000000   2.6709524), wk =   0.0784314
        k(   36) = (  -0.5000000  -0.5000000  -1.2210068), wk =   0.0000000
        k(   37) = (  -0.5000000  -0.5000000   2.8235783), wk =   0.0784314
        k(   38) = (  -0.5000000  -0.5000000  -1.0683810), wk =   0.0000000
        k(   39) = (  -0.5000000  -0.5000000   2.9762041), wk =   0.0784314
        k(   40) = (  -0.5000000  -0.5000000  -0.9157551), wk =   0.0000000
        k(   41) = (  -0.5000000  -0.5000000   3.1288300), wk =   0.0784314
        k(   42) = (  -0.5000000  -0.5000000  -0.7631293), wk =   0.0000000
        k(   43) = (  -0.5000000  -0.5000000   3.2814558), wk =   0.0784314
        k(   44) = (  -0.5000000  -0.5000000  -0.6105034), wk =   0.0000000
        k(   45) = (  -0.5000000  -0.5000000   3.4340817), wk =   0.0784314
        k(   46) = (  -0.5000000  -0.5000000  -0.4578776), wk =   0.0000000
        k(   47) = (  -0.5000000  -0.5000000   3.5867075), wk =   0.0784314
        k(   48) = (  -0.5000000  -0.5000000  -0.3052517), wk =   0.0000000
        k(   49) = (  -0.5000000  -0.5000000   3.7393334), wk =   0.0784314
        k(   50) = (  -0.5000000  -0.5000000  -0.1526259), wk =   0.0000000
        k(   51) = (  -0.5000000  -0.5000000  -3.8919592), wk =   0.0392157
        k(   52) = (  -0.5000000  -0.5000000  -7.7839184), wk =   0.0000000

     Check: negative core charge=   -0.000003

     The potential is recalculated from file :
     ./outdir/_ph0/1c_ph.save/charge-density

     negative rho (up, down):  1.372E-04 0.000E+00
     Starting wfcs are    4 atomic +    2 random wfcs
     Checking if some PAW data can be deallocated...

     Band Structure Calculation
     Davidson diagonalization with overlap

     ethr =  2.50E-10,  avg # of iterations = 35.6

     End of band structure calculation

          k =-0.5000-0.5000 0.0763 ( 10612 PWs)   bands (ev):

   -20.6644  -9.7150  -9.7150   0.3296   0.7053   0.7053

[...]

          k =-0.5000-0.5000-7.7839 ( 10628 PWs)   bands (ev):

   -20.6693  -9.7233  -9.7233   0.3214   0.6966   0.6966

     the Fermi energy is    -4.5854 ev

     Writing config to output data dir ./outdir/_ph0/1c_ph.save/

     C chain phonon calc.

     bravais-lattice index     =            6
     lattice parameter (alat)  =      18.8973  a.u.
     unit-cell volume          =     866.9585 (a.u.)^3
     number of atoms/cell      =            1
     number of atomic types    =            1
     kinetic-energy cut-off    =      80.0000  Ry
     charge density cut-off    =     320.0000  Ry
     convergence threshold     =      1.0E-12
     beta                      =       0.7000
     number of iterations used =            4
     Exchange-correlation= PBE
                           (   1   4   3   4   0   0   0)

     celldm(1)=   18.89726  celldm(2)=    0.00000  celldm(3)=    0.12847
     celldm(4)=    0.00000  celldm(5)=    0.00000  celldm(6)=    0.00000

     crystal axes: (cart. coord. in units of alat)
               a(1) = (  1.0000  0.0000  0.0000 )
               a(2) = (  0.0000  1.0000  0.0000 )
               a(3) = (  0.0000  0.0000  0.1285 )

     reciprocal axes: (cart. coord. in units 2 pi/alat)
               b(1) = (  1.0000  0.0000  0.0000 )
               b(2) = (  0.0000  1.0000  0.0000 )
               b(3) = (  0.0000  0.0000  7.7839 )

     Atoms inside the unit cell:

     Cartesian axes

     site n.  atom      mass           positions (alat units)
        1     C   12.0110   tau(    1) = (    0.00000    0.00000    0.00000  )

     Computing dynamical matrix for
                    q = (   0.0000000   0.0000000  -3.8919592 )

     17 Sym.Ops. (with q -> -q+G )

     G cutoff = 2894.5961  (  83641 G-vectors)     FFT grid: (108,108, 15)

     number of k points=    52  Methfessel-Paxton smearing, width (Ry)=  0.0100

     PseudoPot. # 1 for C  read from file:
     /home/ubuntu/test/492/C.pbe-n-kjpaw_psl.1.0.0.UPF
     MD5 check sum: 5f16ad9a65e90284d1d834d4ab3b0f7d
     Pseudo is Projector augmented-wave + core cor, Zval =  4.0
     Generated using &quot;atomic&quot; code by A. Dal Corso  v.6.3
     Shape of augmentation charge: PSQ
     Using radial grid of 1073 points,  4 beta functions with:
                l(1) =   0
                l(2) =   0
                l(3) =   1
                l(4) =   1
     Q(r) pseudized with 0 coefficients

[...]

     Atomic displacements:
     There are    2 irreducible representations

[...]

     Representation     2      2 modes -  To be done

     Alpha used in Ewald sum =   2.8000

     negative rho (up, down):  1.372E-04 0.000E+00

     Representation #   1 mode #   1

[...]

     Representation #   2 modes #   2   3

     Self-consistent Calculation

[...]

      thresh= 2.282E-07 alpha_mix =  0.700 |ddv_scf|^2 =  2.082E-13

     End of self-consistent calculation

     Convergence has been achieved

     Number of q in the star =    1
     List of q in the star:
          1   0.000000000   0.000000000  -3.891959212

     Diagonalizing the dynamical matrix

     q = (    0.000000000   0.000000000  -3.891959212 )

     freq (    1) =     -34.246743 [THz] =   -1142.348385 [cm-1]
     freq (    2) =      14.998829 [THz] =     500.307069 [cm-1]
     freq (    3) =      14.998829 [THz] =     500.307069 [cm-1]

     Mode symmetry, D_4h(4/mmm) point group:

     freq (   1-   1) =      -1142.3  [cm-1]   --> A_2u X_4' M_4'
     freq (   2-   3) =        500.3  [cm-1]   --> E_u  X_5' M_5'

     General routines

     Parallel routines

     INITIALIZATION:

     DYNAMICAL MATRIX:

                                        0.00s GPU  (    1365 calls)

                                        0.00s GPU  (     309 calls)

      General routines

      Additional routines
                                        0.00s GPU  (   12253 calls)
                                        0.00s GPU  (   12253 calls)

   This run was terminated on:   1:24:20  28Apr2023

   JOB DONE.