     Program PWSCF v.7.2 starts on  2Jun2023 at  2:26: 1

     Reading input from 1_c.scf.in

     Current dimensions of program PWSCF are:
     Max number of different atomic species (ntypx) = 10
     Max number of k-points (npk) =  40000
     Max angular momentum in pseudopotentials (lmaxx) =  4

     IMPORTANT: XC functional enforced from input :
     Exchange-correlation= HSE
                           (   1   4  12   4   0   0   0)
     EXX-fraction              =        0.25
     Any further DFT definition will be discarded
     Please, verify this is what you really want

     Subspace diagonalization in iterative solution of the eigenvalue problem:
     a serial algorithm will be used

     EXX: q-point mesh:     1    1    4
     EXX: setup a grid of 40 q-points centered on each k-point
     (k+q)-points:
  -0.5000000  -0.5000000   0.0972990         1    1
  -0.5000000  -0.5000000   2.0432786        11    1
   0.5000000   0.5000000  -3.7946602        20   -1
   0.5000000   0.5000000  -1.8486806        10   -1
  -0.5000000  -0.5000000   0.2918969         2    1
  -0.5000000  -0.5000000   2.2378765        12    1
   0.5000000   0.5000000  -3.6000623        19   -1
   0.5000000   0.5000000  -1.6540827         9   -1
  -0.5000000  -0.5000000   0.4864949         3    1
  -0.5000000  -0.5000000   2.4324745        13    1
   0.5000000   0.5000000  -3.4054643        18   -1
   0.5000000   0.5000000  -1.4594847         8   -1
  -0.5000000  -0.5000000   0.6810929         4    1
  -0.5000000  -0.5000000   2.6270725        14    1
   0.5000000   0.5000000  -3.2108664        17   -1
   0.5000000   0.5000000  -1.2648867         7   -1
  -0.5000000  -0.5000000   0.8756908         5    1
  -0.5000000  -0.5000000   2.8216704        15    1
   0.5000000   0.5000000  -3.0162684        16   -1
   0.5000000   0.5000000  -1.0702888         6   -1
  -0.5000000  -0.5000000   1.0702888         6    1
  -0.5000000  -0.5000000   3.0162684        16    1
   0.5000000   0.5000000  -2.8216704        15   -1
   0.5000000   0.5000000  -0.8756908         5   -1
  -0.5000000  -0.5000000   1.2648867         7    1
  -0.5000000  -0.5000000   3.2108664        17    1
   0.5000000   0.5000000  -2.6270725        14   -1
   0.5000000   0.5000000  -0.6810929         4   -1
  -0.5000000  -0.5000000   1.4594847         8    1
  -0.5000000  -0.5000000   3.4054643        18    1
   0.5000000   0.5000000  -2.4324745        13   -1
   0.5000000   0.5000000  -0.4864949         3   -1
  -0.5000000  -0.5000000   1.6540827         9    1
  -0.5000000  -0.5000000   3.6000623        19    1
   0.5000000   0.5000000  -2.2378765        12   -1
   0.5000000   0.5000000  -0.2918969         2   -1
  -0.5000000  -0.5000000   1.8486806        10    1
  -0.5000000  -0.5000000   3.7946602        20    1
   0.5000000   0.5000000  -2.0432786        11   -1
   0.5000000   0.5000000  -0.0972990         1   -1

     Using Slab Decomposition

     bravais-lattice index     =            6
     lattice parameter (alat)  =      18.8973  a.u.
     unit-cell volume          =     866.9585 (a.u.)^3
     number of atoms/cell      =            1
     number of atomic types    =            1
     number of electrons       =         4.00
     number of Kohn-Sham states=            8
     kinetic-energy cutoff     =      45.0000  Ry
     charge density cutoff     =     180.0000  Ry
     cutoff for Fock operator  =     180.0000  Ry
     scf convergence threshold =      1.0E-06
     mixing beta               =       0.7000
     number of iterations used =            8  plain     mixing
     Exchange-correlation= HSE
                           (   1   4  12   4   0   0   0)
     EXX-fraction              =        0.25

     celldm(1)=  18.897261  celldm(2)=   1.000000  celldm(3)=   0.128470
     celldm(4)=   0.000000  celldm(5)=   0.000000  celldm(6)=   0.000000

     crystal axes: (cart. coord. in units of alat)
               a(1) = (   1.000000   0.000000   0.000000 )
               a(2) = (   0.000000   1.000000   0.000000 )
               a(3) = (   0.000000   0.000000   0.128470 )

     reciprocal axes: (cart. coord. in units 2 pi/alat)
               b(1) = (  1.000000  0.000000  0.000000 )
               b(2) = (  0.000000  1.000000  0.000000 )
               b(3) = (  0.000000  0.000000  7.783918 )

     PseudoPot. # 1 for C  read from file:
     ./C_ONCV_PBE_sr.upf
     MD5 check sum: b68b6074392897e22e8b22f1bd7aa93e
     Pseudo is Norm-conserving, Zval =  4.0
     Generated using ONCVPSP code by D. R. Hamann
     Using radial grid of 1248 points,  4 beta functions with:
                l(1) =   0
                l(2) =   0
                l(3) =   1
                l(4) =   1

     atomic species   valence    mass     pseudopotential
        C              4.00    12.01100     C ( 1.00)

     16 Sym. Ops., with inversion, found

   Cartesian axes

     site n.     atom                  positions (alat units)
         1           C   tau(   1) = (   0.0000000   0.0000000   0.0000000  )

     number of k points=    20  Methfessel-Paxton smearing, width (Ry)=  0.0100
                       cart. coord. in units 2pi/alat
        k(    1) = (  -0.5000000  -0.5000000   0.0972990), wk =   0.1000000
        k(    2) = (  -0.5000000  -0.5000000   0.2918969), wk =   0.1000000
        k(    3) = (  -0.5000000  -0.5000000   0.4864949), wk =   0.1000000
        k(    4) = (  -0.5000000  -0.5000000   0.6810929), wk =   0.1000000
        k(    5) = (  -0.5000000  -0.5000000   0.8756908), wk =   0.1000000
        k(    6) = (  -0.5000000  -0.5000000   1.0702888), wk =   0.1000000
        k(    7) = (  -0.5000000  -0.5000000   1.2648867), wk =   0.1000000
        k(    8) = (  -0.5000000  -0.5000000   1.4594847), wk =   0.1000000
        k(    9) = (  -0.5000000  -0.5000000   1.6540827), wk =   0.1000000
        k(   10) = (  -0.5000000  -0.5000000   1.8486806), wk =   0.1000000
        k(   11) = (  -0.5000000  -0.5000000   2.0432786), wk =   0.1000000
        k(   12) = (  -0.5000000  -0.5000000   2.2378765), wk =   0.1000000
        k(   13) = (  -0.5000000  -0.5000000   2.4324745), wk =   0.1000000
        k(   14) = (  -0.5000000  -0.5000000   2.6270725), wk =   0.1000000
        k(   15) = (  -0.5000000  -0.5000000   2.8216704), wk =   0.1000000
        k(   16) = (  -0.5000000  -0.5000000   3.0162684), wk =   0.1000000
        k(   17) = (  -0.5000000  -0.5000000   3.2108664), wk =   0.1000000
        k(   18) = (  -0.5000000  -0.5000000   3.4054643), wk =   0.1000000
        k(   19) = (  -0.5000000  -0.5000000   3.6000623), wk =   0.1000000
        k(   20) = (  -0.5000000  -0.5000000   3.7946602), wk =   0.1000000

     Initial potential from superposition of free atoms

     starting charge       4.0000, renormalised to       4.0000

     negative rho (up, down):  1.304E-04 0.000E+00
     Starting wfcs are    4 randomized atomic wfcs +    4 random wfcs

     Self-consistent Calculation

     iteration #  1     ecut=    45.00 Ry     beta= 0.70
     Davidson diagonalization with overlap
     ethr =  1.00E-02,  avg # of iterations =  7.3

     negative rho (up, down):  3.006E-05 0.000E+00

     total energy              =     -11.29102616 Ry
     estimated scf accuracy    <       0.12166590 Ry

[...]

     negative rho (up, down):  6.580E-06 0.000E+00

[...]

     End of self-consistent calculation

          k =-0.5000-0.5000 0.0973 (  4496 PWs)   bands (ev):

   -20.7279  -9.7285  -9.7285   0.3537   0.8832   0.8832   1.1845   2.7710

[...]

     the Fermi energy is    -4.4236 ev

!    total energy              =     -11.31469257 Ry
     estimated scf accuracy    <       0.00000022 Ry
     smearing contrib. (-TS)   =       0.00000001 Ry
     internal energy E=F+TS    =     -11.31469258 Ry

     convergence has been achieved in   4 iterations

     Using ACE for calculation of exact exchange

     EXX: now go back to refine exchange calculation

[...]

     Using ACE for calculation of exact exchange
     ACE projected onto     8 (nbndproj) and applied to     8 (nbnd) bands

     total energy              =     -11.30761919 Ry
     Harris-Foulkes estimate   =     -11.30761930 Ry
     est. exchange err (dexx)  =       0.00003613 Ry
     - averaged Fock potential =       1.30151690 Ry
     + Fock energy (ACE)       =      -0.65058346 Ry

     EXX: now go back to refine exchange calculation

     Self-consistent Calculation

[...]

     total energy              =     -11.30762158 Ry
     estimated scf accuracy    <       0.00000105 Ry

     iteration #  2     ecut=    45.00 Ry     beta= 0.70
     Davidson diagonalization with overlap
     ethr =  2.62E-08,  avg # of iterations =  1.6

     End of self-consistent calculation

[...]

          k =-0.5000-0.5000 3.7947 (  4344 PWs)   bands (ev):

   -15.1106   5.0269   7.9112   7.9112  19.2965  19.2965  21.7869  22.7724

     the Fermi energy is    -4.7316 ev

!    total energy              =     -11.30762174 Ry
     estimated scf accuracy    <       0.00000003 Ry
     smearing contrib. (-TS)   =       0.00000000 Ry
     internal energy E=F+TS    =     -11.30762174 Ry

     convergence has been achieved in   2 iterations

     Using ACE for calculation of exact exchange
     ACE projected onto     8 (nbndproj) and applied to     8 (nbnd) bands

!!   total energy              =     -11.30762194 Ry
     Harris-Foulkes estimate   =     -11.30762196 Ry
     est. exchange err (dexx)  =       0.00000020 Ry
     - averaged Fock potential =       1.30112280 Ry
     + Fock energy (ACE)       =      -0.65053954 Ry

     EXX self-consistency reached

     Writing all to output data dir ./outdir/hse.save/

     General routines

     Parallel routines

     EXX routines

   This run was terminated on:   2:26:56   2Jun2023

   JOB DONE.