     Program PWSCF v.7.2 starts on  4Jun2023 at 14:55: 2

     Reading input from 1c.clat.in

     Current dimensions of program PWSCF are:
     Max number of different atomic species (ntypx) = 10
     Max number of k-points (npk) =  40000
     Max angular momentum in pseudopotentials (lmaxx) =  4

     IMPORTANT: XC functional enforced from input :
     Exchange-correlation= HSE
                           (   1   4  12   4   0   0   0)
     EXX-fraction              =        0.25
     Any further DFT definition will be discarded
     Please, verify this is what you really want

     Subspace diagonalization in iterative solution of the eigenvalue problem:
     a serial algorithm will be used

     EXX: q-point mesh:     1    1    2
     EXX: setup a grid of 40 q-points centered on each k-point
     (k+q)-points:
   0.0000000   0.0000000   0.0000000         1    1
   0.0000000   0.0000000  -3.9001560        21    1
   0.0000000   0.0000000   0.1950078         2    1
  -0.0000000  -0.0000000  -3.7051482        20   -1
   0.0000000   0.0000000   0.3900156         3    1
  -0.0000000  -0.0000000  -3.5101404        19   -1
   0.0000000   0.0000000   0.5850234         4    1
  -0.0000000  -0.0000000  -3.3151326        18   -1
   0.0000000   0.0000000   0.7800312         5    1
  -0.0000000  -0.0000000  -3.1201248        17   -1
   0.0000000   0.0000000   0.9750390         6    1
  -0.0000000  -0.0000000  -2.9251170        16   -1
   0.0000000   0.0000000   1.1700468         7    1
  -0.0000000  -0.0000000  -2.7301092        15   -1
   0.0000000   0.0000000   1.3650546         8    1
  -0.0000000  -0.0000000  -2.5351014        14   -1
   0.0000000   0.0000000   1.5600624         9    1
  -0.0000000  -0.0000000  -2.3400936        13   -1
   0.0000000   0.0000000   1.7550702        10    1
  -0.0000000  -0.0000000  -2.1450858        12   -1
   0.0000000   0.0000000   1.9500780        11    1
  -0.0000000  -0.0000000  -1.9500780        11   -1
   0.0000000   0.0000000   2.1450858        12    1
  -0.0000000  -0.0000000  -1.7550702        10   -1
   0.0000000   0.0000000   2.3400936        13    1
  -0.0000000  -0.0000000  -1.5600624         9   -1
   0.0000000   0.0000000   2.5351014        14    1
  -0.0000000  -0.0000000  -1.3650546         8   -1
   0.0000000   0.0000000   2.7301092        15    1
  -0.0000000  -0.0000000  -1.1700468         7   -1
   0.0000000   0.0000000   2.9251170        16    1
  -0.0000000  -0.0000000  -0.9750390         6   -1
   0.0000000   0.0000000   3.1201248        17    1
  -0.0000000  -0.0000000  -0.7800312         5   -1
   0.0000000   0.0000000   3.3151326        18    1
  -0.0000000  -0.0000000  -0.5850234         4   -1
   0.0000000   0.0000000   3.5101404        19    1
  -0.0000000  -0.0000000  -0.3900156         3   -1
   0.0000000   0.0000000   3.7051482        20    1
  -0.0000000  -0.0000000  -0.1950078         2   -1

     Using Slab Decomposition

     bravais-lattice index     =            6
     lattice parameter (alat)  =      18.8973  a.u.
     unit-cell volume          =     865.1365 (a.u.)^3
     number of atoms/cell      =            1
     number of atomic types    =            1
     number of electrons       =         4.00
     number of Kohn-Sham states=            6
     kinetic-energy cutoff     =      45.0000  Ry
     charge density cutoff     =     180.0000  Ry
     cutoff for Fock operator  =     180.0000  Ry
     scf convergence threshold =      1.0E-06
     mixing beta               =       0.7000
     number of iterations used =            8  plain     mixing
     energy convergence thresh.=      1.0E-04
     force convergence thresh. =      1.0E-03
     press convergence thresh. =      5.0E-01
     Exchange-correlation= HSE
                           (   1   4  12   4   0   0   0)
     EXX-fraction              =        0.25
     nstep                     =           50

     celldm(1)=  18.897261  celldm(2)=   1.000000  celldm(3)=   0.128200
     celldm(4)=   0.000000  celldm(5)=   0.000000  celldm(6)=   0.000000

     crystal axes: (cart. coord. in units of alat)
               a(1) = (   1.000000   0.000000   0.000000 )
               a(2) = (   0.000000   1.000000   0.000000 )
               a(3) = (   0.000000   0.000000   0.128200 )

     reciprocal axes: (cart. coord. in units 2 pi/alat)
               b(1) = (  1.000000  0.000000  0.000000 )
               b(2) = (  0.000000  1.000000  0.000000 )
               b(3) = (  0.000000  0.000000  7.800312 )

     PseudoPot. # 1 for C  read from file:
     ../C.pbe-n-kjpaw_psl.1.0.0.UPF
     MD5 check sum: 1a5f83a7b1f58d24996abe00ed223ac6
     Pseudo is Norm-conserving, Zval =  4.0
     Generated using ONCVPSP code by D. R. Hamann
     Using radial grid of  602 points,  4 beta functions with:
                l(1) =   0
                l(2) =   0
                l(3) =   1
                l(4) =   1

     atomic species   valence    mass     pseudopotential
        C              4.00    12.01100     C ( 1.00)

     16 Sym. Ops., with inversion, found

   Cartesian axes

     site n.     atom                  positions (alat units)
         1           C   tau(   1) = (   0.0000000   0.0000000   0.0000000  )

     number of k points=    21  Gaussian smearing, width (Ry)=  0.0100
                       cart. coord. in units 2pi/alat
        k(    1) = (   0.0000000   0.0000000   0.0000000), wk =   0.0500000
        k(    2) = (   0.0000000   0.0000000   0.1950078), wk =   0.1000000
        k(    3) = (   0.0000000   0.0000000   0.3900156), wk =   0.1000000
        k(    4) = (   0.0000000   0.0000000   0.5850234), wk =   0.1000000
        k(    5) = (   0.0000000   0.0000000   0.7800312), wk =   0.1000000
        k(    6) = (   0.0000000   0.0000000   0.9750390), wk =   0.1000000
        k(    7) = (   0.0000000   0.0000000   1.1700468), wk =   0.1000000
        k(    8) = (   0.0000000   0.0000000   1.3650546), wk =   0.1000000
        k(    9) = (   0.0000000   0.0000000   1.5600624), wk =   0.1000000
        k(   10) = (   0.0000000   0.0000000   1.7550702), wk =   0.1000000
        k(   11) = (   0.0000000   0.0000000   1.9500780), wk =   0.1000000
        k(   12) = (   0.0000000   0.0000000   2.1450858), wk =   0.1000000
        k(   13) = (   0.0000000   0.0000000   2.3400936), wk =   0.1000000
        k(   14) = (   0.0000000   0.0000000   2.5351014), wk =   0.1000000
        k(   15) = (   0.0000000   0.0000000   2.7301092), wk =   0.1000000
        k(   16) = (   0.0000000   0.0000000   2.9251170), wk =   0.1000000
        k(   17) = (   0.0000000   0.0000000   3.1201248), wk =   0.1000000
        k(   18) = (   0.0000000   0.0000000   3.3151326), wk =   0.1000000
        k(   19) = (   0.0000000   0.0000000   3.5101404), wk =   0.1000000
        k(   20) = (   0.0000000   0.0000000   3.7051482), wk =   0.1000000
        k(   21) = (   0.0000000   0.0000000  -3.9001560), wk =   0.0500000

     Initial potential from superposition of free atoms

     starting charge       3.9930, renormalised to       4.0000

     negative rho (up, down):  3.664E-04 0.000E+00
     Starting wfcs are random

     Self-consistent Calculation

     iteration #  1     ecut=    45.00 Ry     beta= 0.70
     Davidson diagonalization with overlap
     ethr =  1.00E-02,  avg # of iterations =  8.3

     negative rho (up, down):  3.709E-05 0.000E+00

     total energy              =     -11.29211634 Ry
     estimated scf accuracy    <       0.11248287 Ry

[...]

     iteration #  4     ecut=    45.00 Ry     beta= 0.70
     Davidson diagonalization with overlap
     c_bands:  1 eigenvalues not converged
     c_bands:  1 eigenvalues not converged
     c_bands:  1 eigenvalues not converged
     c_bands:  1 eigenvalues not converged
     c_bands:  1 eigenvalues not converged
     c_bands:  1 eigenvalues not converged
     c_bands:  1 eigenvalues not converged
     c_bands:  1 eigenvalues not converged
     c_bands:  2 eigenvalues not converged
     c_bands:  1 eigenvalues not converged
     ethr =  2.29E-06,  avg # of iterations = 14.4

[...]

     End of self-consistent calculation

          k = 0.0000 0.0000 0.0000 (  4485 PWs)   bands (ev):

   -20.7404  -9.7477  -9.7477  -0.0731   1.4748   1.4772

[...]

     the Fermi energy is    -4.4130 ev

!    total energy              =     -11.31284672 Ry
     estimated scf accuracy    <       0.00000004 Ry
     smearing contrib. (-TS)   =      -0.00056419 Ry
     internal energy E=F+TS    =     -11.31228253 Ry

     convergence has been achieved in   5 iterations

     Using ACE for calculation of exact exchange

     EXX: now go back to refine exchange calculation

[...]

     Using ACE for calculation of exact exchange
     ACE projected onto     6 (nbndproj) and applied to     6 (nbnd) bands

     total energy              =     -11.31614403 Ry
     Harris-Foulkes estimate   =     -11.31614417 Ry
     est. exchange err (dexx)  =       0.00003289 Ry
     - averaged Fock potential =       1.32422531 Ry
     + Fock energy (ACE)       =      -0.66216742 Ry

[...]

!!   total energy              =     -11.31614624 Ry
     Harris-Foulkes estimate   =     -11.31614682 Ry
     est. exchange err (dexx)  =       0.00000022 Ry
     - averaged Fock potential =       1.32421890 Ry
     + Fock energy (ACE)       =      -0.66205169 Ry

     EXX self-consistency reached

     Forces acting on atoms (cartesian axes, Ry/au):

     atom    1 type  1   force =     0.00000000    0.00000000    0.00000000
     The non-local contrib.  to forces
     atom    1 type  1   force =     0.00000000    0.00000000    0.00000000
     The ionic contribution  to forces
     atom    1 type  1   force =    -0.00000000   -0.00000000   -0.00000000
     The local contribution  to forces
     atom    1 type  1   force =     0.00000000    0.00000000    0.00000000
     The core correction contribution to forces
     atom    1 type  1   force =     0.00000000    0.00000000    0.00000000
     The Hubbard contrib.    to forces
     atom    1 type  1   force =     0.00000000    0.00000000    0.00000000
     The SCF correction term to forces
     atom    1 type  1   force =    -0.00000000    0.00000000    0.00000000

     Total force =     0.000000     Total SCF correction =     0.000000

     Computing stress (Cartesian axis) and pressure

          total   stress  (Ry/bohr**3)                   (kbar)     P=       -9.38
  -0.00000771   0.00000000   0.00000000           -1.13        0.00        0.00
   0.00000000  -0.00000771   0.00000000            0.00       -1.13        0.00
   0.00000000   0.00000000  -0.00017582            0.00        0.00      -25.86

     BFGS Geometry Optimization
     Energy error            =      0.0E+00 Ry
     Gradient error          =      0.0E+00 Ry/Bohr
     Cell gradient error     =      2.6E+01 kbar

     number of scf cycles    =   1
     number of bfgs steps    =   0

     enthalpy           new  =     -11.3161462357 Ry

     new trust radius        =       0.0258578355 bohr
     new conv_thr            =       0.0000010000 Ry

     new unit-cell volume =    861.00184 a.u.^3 (   127.58731 Ang^3 )
     density =      0.15632 g/cm^3

[...]
  -0.0000000  -0.0000000  -0.5876063         4   -1
   0.0000000   0.0000000   3.5256378        19    1
  -0.0000000  -0.0000000  -0.3917375         3   -1
   0.0000000   0.0000000   3.7215065        20    1
  -0.0000000  -0.0000000  -0.1958688         2   -1

     negative rho (up, down):  7.366E-08 0.000E+00
     extrapolated charge    3.98082, renormalised to    4.00000

[...]

     Energy error            =      5.9E-04 Ry
     Gradient error          =      0.0E+00 Ry/Bohr
     Cell gradient error     =      1.9E+01 kbar

[...]

     enthalpy           old  =     -11.3161462357 Ry
     enthalpy           new  =     -11.3167350630 Ry

     CASE: enthalpy          _new < enthalpy          _old

[...]

     Writing config-only to output data dir ./outdir/1c_clat.save/
     NEW-OLD atomic charge density approx. for the potential
     EXX: q-point mesh:     1    1    2
     EXX: setup a grid of 40 q-points centered on each k-point
     (k+q)-points:
   0.0000000   0.0000000   0.0000000         1    1
   0.0000000   0.0000000  -3.9638859        21    1
   0.0000000   0.0000000   0.1981943         2    1
  -0.0000000  -0.0000000  -3.7656916        20   -1
   0.0000000   0.0000000   0.3963886         3    1
  -0.0000000  -0.0000000  -3.5674973        19   -1
   0.0000000   0.0000000   0.5945829         4    1
  -0.0000000  -0.0000000  -3.3693030        18   -1
   0.0000000   0.0000000   0.7927772         5    1
  -0.0000000  -0.0000000  -3.1711087        17   -1
   0.0000000   0.0000000   0.9909715         6    1
  -0.0000000  -0.0000000  -2.9729144        16   -1
   0.0000000   0.0000000   1.1891658         7    1
  -0.0000000  -0.0000000  -2.7747201        15   -1
   0.0000000   0.0000000   1.3873601         8    1
  -0.0000000  -0.0000000  -2.5765258        14   -1
   0.0000000   0.0000000   1.5855544         9    1
  -0.0000000  -0.0000000  -2.3783315        13   -1
   0.0000000   0.0000000   1.7837487        10    1
  -0.0000000  -0.0000000  -2.1801372        12   -1
   0.0000000   0.0000000   1.9819429        11    1
  -0.0000000  -0.0000000  -1.9819429        11   -1
   0.0000000   0.0000000   2.1801372        12    1
  -0.0000000  -0.0000000  -1.7837487        10   -1
   0.0000000   0.0000000   2.3783315        13    1
  -0.0000000  -0.0000000  -1.5855544         9   -1
   0.0000000   0.0000000   2.5765258        14    1
  -0.0000000  -0.0000000  -1.3873601         8   -1
   0.0000000   0.0000000   2.7747201        15    1
  -0.0000000  -0.0000000  -1.1891658         7   -1
   0.0000000   0.0000000   2.9729144        16    1
  -0.0000000  -0.0000000  -0.9909715         6   -1
   0.0000000   0.0000000   3.1711087        17    1
  -0.0000000  -0.0000000  -0.7927772         5   -1
   0.0000000   0.0000000   3.3693030        18    1
  -0.0000000  -0.0000000  -0.5945829         4   -1
   0.0000000   0.0000000   3.5674973        19    1
  -0.0000000  -0.0000000  -0.3963886         3   -1
   0.0000000   0.0000000   3.7656916        20    1
  -0.0000000  -0.0000000  -0.1981943         2   -1

     negative rho (up, down):  1.007E-06 0.000E+00
     extrapolated charge    3.96909, renormalised to    4.00000

[...]

     number of scf cycles    =   4
     number of bfgs steps    =   3

     enthalpy           old  =     -11.3171720890 Ry
     enthalpy           new  =     -11.3173914699 Ry

     CASE: enthalpy          _new < enthalpy          _old

     new trust radius        =       0.0021572349 bohr
     new conv_thr            =       0.0000000100 Ry

     new unit-cell volume =    850.02793 a.u.^3 (   125.96114 Ang^3 )
     density =      0.15834 g/cm^3

[...]

ATOMIC_POSITIONS (angstrom)
C             0.0000000000        0.0000000000        0.0000000000

     Writing config-only to output data dir ./outdir/1c_clat.save/
     NEW-OLD atomic charge density approx. for the potential
     EXX: q-point mesh:     1    1    2
     EXX: setup a grid of 40 q-points centered on each k-point
     (k+q)-points:
   0.0000000   0.0000000   0.0000000         1    1
   0.0000000   0.0000000  -3.9624198        21    1
   0.0000000   0.0000000   0.1981210         2    1
  -0.0000000  -0.0000000  -3.7642988        20   -1
   0.0000000   0.0000000   0.3962420         3    1
  -0.0000000  -0.0000000  -3.5661778        19   -1
   0.0000000   0.0000000   0.5943630         4    1
  -0.0000000  -0.0000000  -3.3680568        18   -1
   0.0000000   0.0000000   0.7924840         5    1
  -0.0000000  -0.0000000  -3.1699358        17   -1
   0.0000000   0.0000000   0.9906049         6    1
  -0.0000000  -0.0000000  -2.9718148        16   -1
   0.0000000   0.0000000   1.1887259         7    1
  -0.0000000  -0.0000000  -2.7736938        15   -1
   0.0000000   0.0000000   1.3868469         8    1
  -0.0000000  -0.0000000  -2.5755729        14   -1
   0.0000000   0.0000000   1.5849679         9    1
  -0.0000000  -0.0000000  -2.3774519        13   -1
   0.0000000   0.0000000   1.7830889        10    1
  -0.0000000  -0.0000000  -2.1793309        12   -1
   0.0000000   0.0000000   1.9812099        11    1
  -0.0000000  -0.0000000  -1.9812099        11   -1
   0.0000000   0.0000000   2.1793309        12    1
  -0.0000000  -0.0000000  -1.7830889        10   -1
   0.0000000   0.0000000   2.3774519        13    1
  -0.0000000  -0.0000000  -1.5849679         9   -1
   0.0000000   0.0000000   2.5755729        14    1
  -0.0000000  -0.0000000  -1.3868469         8   -1
   0.0000000   0.0000000   2.7736938        15    1
  -0.0000000  -0.0000000  -1.1887259         7   -1
   0.0000000   0.0000000   2.9718148        16    1
  -0.0000000  -0.0000000  -0.9906049         6   -1
   0.0000000   0.0000000   3.1699358        17    1
  -0.0000000  -0.0000000  -0.7924840         5   -1
   0.0000000   0.0000000   3.3680568        18    1
  -0.0000000  -0.0000000  -0.5943630         4   -1
   0.0000000   0.0000000   3.5661778        19    1
  -0.0000000  -0.0000000  -0.3962420         3   -1
   0.0000000   0.0000000   3.7642988        20    1
  -0.0000000  -0.0000000  -0.1981210         2   -1
     extrapolated charge    4.00106, renormalised to    4.00000

[...]

     Energy error            =      9.7E-06 Ry
     Gradient error          =      0.0E+00 Ry/Bohr
     Cell gradient error     =      4.3E-01 kbar

     bfgs converged in   5 scf cycles and   4 bfgs steps
     (criteria: energy <  1.0E-04 Ry, force <  1.0E-03 Ry/Bohr, cell <  5.0E-01 kbar)

     End of BFGS Geometry Optimization

     Final enthalpy           =     -11.3174011646 Ry

     File ./outdir/1c_clat.bfgs deleted, as requested
Begin final coordinates
     new unit-cell volume =    850.02793 a.u.^3 (   125.96114 Ang^3 )
     density =      0.15834 g/cm^3

CELL_PARAMETERS (alat= 18.89726125)
   0.999110528   0.000000000   0.000000000
   0.000000000   0.999110528   0.000000000
   0.000000000   0.000000000   0.126185520

ATOMIC_POSITIONS (angstrom)
C             0.0000000000        0.0000000000        0.0000000000
End final coordinates

     Writing config-only to output data dir ./outdir/1c_clat.save/

     Final scf calculation at the relaxed structure.
     The G-vectors are recalculated for the final unit cell
     Results may differ from those at the preceding step.

     Using Slab Decomposition

     bravais-lattice index     =            6
     lattice parameter (alat)  =      18.8973  a.u.
     unit-cell volume          =     850.0279 (a.u.)^3
     number of atoms/cell      =            1
     number of atomic types    =            1
     number of electrons       =         4.00
     number of Kohn-Sham states=            6
     kinetic-energy cutoff     =      45.0000  Ry
     charge density cutoff     =     180.0000  Ry
     cutoff for Fock operator  =     180.0000  Ry
     scf convergence threshold =      1.0E-08
     mixing beta               =       0.7000
     number of iterations used =            8  plain     mixing
     press convergence thresh. =      5.0E-01
     Exchange-correlation= HSE
                           (   1   4  12   4   0   0   0)
     EXX-fraction              =        0.25

     celldm(1)=  18.897261  celldm(2)=   1.000000  celldm(3)=   0.128200
     celldm(4)=   0.000000  celldm(5)=   0.000000  celldm(6)=   0.000000

     crystal axes: (cart. coord. in units of alat)
               a(1) = (   0.999111   0.000000   0.000000 )
               a(2) = (   0.000000   0.999111   0.000000 )
               a(3) = (   0.000000   0.000000   0.126186 )

     reciprocal axes: (cart. coord. in units 2 pi/alat)
               b(1) = (  1.000890  0.000000  0.000000 )
               b(2) = (  0.000000  1.000890  0.000000 )
               b(3) = (  0.000000  0.000000  7.924840 )

     PseudoPot. # 1 for C  read from file:
     ../C.pbe-n-kjpaw_psl.1.0.0.UPF
     MD5 check sum: 1a5f83a7b1f58d24996abe00ed223ac6
     Pseudo is Norm-conserving, Zval =  4.0
     Generated using ONCVPSP code by D. R. Hamann
     Using radial grid of  602 points,  4 beta functions with:
                l(1) =   0
                l(2) =   0
                l(3) =   1
                l(4) =   1

     atomic species   valence    mass     pseudopotential
        C              4.00    12.01100     C ( 1.00)

     16 Sym. Ops., with inversion, found

   Cartesian axes

     site n.     atom                  positions (alat units)
         1           C   tau(   1) = (   0.0000000   0.0000000   0.0000000  )

     number of k points=    21  Gaussian smearing, width (Ry)=  0.0100
                       cart. coord. in units 2pi/alat
        k(    1) = (   0.0000000   0.0000000   0.0000000), wk =   0.0500000
        k(    2) = (   0.0000000   0.0000000   0.1981210), wk =   0.1000000
        k(    3) = (   0.0000000   0.0000000   0.3962420), wk =   0.1000000
        k(    4) = (   0.0000000   0.0000000   0.5943630), wk =   0.1000000
        k(    5) = (   0.0000000   0.0000000   0.7924840), wk =   0.1000000
        k(    6) = (   0.0000000   0.0000000   0.9906049), wk =   0.1000000
        k(    7) = (   0.0000000   0.0000000   1.1887259), wk =   0.1000000
        k(    8) = (   0.0000000   0.0000000   1.3868469), wk =   0.1000000
        k(    9) = (   0.0000000   0.0000000   1.5849679), wk =   0.1000000
        k(   10) = (   0.0000000   0.0000000   1.7830889), wk =   0.1000000
        k(   11) = (   0.0000000   0.0000000   1.9812099), wk =   0.1000000
        k(   12) = (   0.0000000   0.0000000   2.1793309), wk =   0.1000000
        k(   13) = (   0.0000000   0.0000000   2.3774519), wk =   0.1000000
        k(   14) = (   0.0000000   0.0000000   2.5755729), wk =   0.1000000
        k(   15) = (   0.0000000   0.0000000   2.7736938), wk =   0.1000000
        k(   16) = (   0.0000000   0.0000000   2.9718148), wk =   0.1000000
        k(   17) = (   0.0000000   0.0000000   3.1699358), wk =   0.1000000
        k(   18) = (   0.0000000   0.0000000   3.3680568), wk =   0.1000000
        k(   19) = (   0.0000000   0.0000000   3.5661778), wk =   0.1000000
        k(   20) = (   0.0000000   0.0000000   3.7642988), wk =   0.1000000
        k(   21) = (   0.0000000   0.0000000  -3.9624198), wk =   0.0500000

     Initial potential from superposition of free atoms

     starting charge       3.9930, renormalised to       4.0000

     negative rho (up, down):  3.626E-04 0.000E+00
     Starting wfcs are random
     EXX: q-point mesh:     1    1    2
     EXX: setup a grid of 40 q-points centered on each k-point
     (k+q)-points:
   0.0000000   0.0000000   0.0000000         1    1
   0.0000000   0.0000000  -3.9624198        21    1
   0.0000000   0.0000000   0.1981210         2    1
  -0.0000000  -0.0000000  -3.7642988        20   -1
   0.0000000   0.0000000   0.3962420         3    1
  -0.0000000  -0.0000000  -3.5661778        19   -1
   0.0000000   0.0000000   0.5943630         4    1
  -0.0000000  -0.0000000  -3.3680568        18   -1
   0.0000000   0.0000000   0.7924840         5    1
  -0.0000000  -0.0000000  -3.1699358        17   -1
   0.0000000   0.0000000   0.9906049         6    1
  -0.0000000  -0.0000000  -2.9718148        16   -1
   0.0000000   0.0000000   1.1887259         7    1
  -0.0000000  -0.0000000  -2.7736938        15   -1
   0.0000000   0.0000000   1.3868469         8    1
  -0.0000000  -0.0000000  -2.5755729        14   -1
   0.0000000   0.0000000   1.5849679         9    1
  -0.0000000  -0.0000000  -2.3774519        13   -1
   0.0000000   0.0000000   1.7830889        10    1
  -0.0000000  -0.0000000  -2.1793309        12   -1
   0.0000000   0.0000000   1.9812099        11    1
  -0.0000000  -0.0000000  -1.9812099        11   -1
   0.0000000   0.0000000   2.1793309        12    1
  -0.0000000  -0.0000000  -1.7830889        10   -1
   0.0000000   0.0000000   2.3774519        13    1
  -0.0000000  -0.0000000  -1.5849679         9   -1
   0.0000000   0.0000000   2.5755729        14    1
  -0.0000000  -0.0000000  -1.3868469         8   -1
   0.0000000   0.0000000   2.7736938        15    1
  -0.0000000  -0.0000000  -1.1887259         7   -1
   0.0000000   0.0000000   2.9718148        16    1
  -0.0000000  -0.0000000  -0.9906049         6   -1
   0.0000000   0.0000000   3.1699358        17    1
  -0.0000000  -0.0000000  -0.7924840         5   -1
   0.0000000   0.0000000   3.3680568        18    1
  -0.0000000  -0.0000000  -0.5943630         4   -1
   0.0000000   0.0000000   3.5661778        19    1
  -0.0000000  -0.0000000  -0.3962420         3   -1
   0.0000000   0.0000000   3.7642988        20    1
  -0.0000000  -0.0000000  -0.1981210         2   -1

[...]

     negative rho (up, down):  1.418E-05 0.000E+00

[...]

     iteration #  1     ecut=    45.00 Ry     beta= 0.70
     Davidson diagonalization with overlap
     c_bands:  1 eigenvalues not converged
     ethr =  4.47E-10,  avg # of iterations =  8.2

[...]

     total energy              =     -11.31609563 Ry
     estimated scf accuracy    <       0.00000002 Ry

[...]

     total energy              =     -11.31609579 Ry
     Harris-Foulkes estimate   =     -11.31609579 Ry
     est. exchange err (dexx)  =       0.00000015 Ry
     - averaged Fock potential =       1.33975009 Ry
     + Fock energy (ACE)       =      -0.66985553 Ry

     EXX: now go back to refine exchange calculation

     Self-consistent Calculation

     iteration #  1     ecut=    45.00 Ry     beta= 0.70
     Davidson diagonalization with overlap
     ethr =  5.86E-10,  avg # of iterations =  2.0

     End of self-consistent calculation

[...]

          k = 0.0000 0.0000-3.9624 (  4230 PWs)   bands (ev):

   -15.5785   6.2712   9.0357   9.0357  19.9564  19.9564

     the Fermi energy is    -4.3715 ev

!    total energy              =     -11.31609580 Ry
     estimated scf accuracy    <          4.9E-09 Ry
     smearing contrib. (-TS)   =      -0.00056419 Ry
     internal energy E=F+TS    =     -11.31553161 Ry

     convergence has been achieved in   1 iterations

     Using ACE for calculation of exact exchange
     ACE projected onto     6 (nbndproj) and applied to     6 (nbnd) bands

!!   total energy              =     -11.31609581 Ry
     Harris-Foulkes estimate   =     -11.31609581 Ry
     est. exchange err (dexx)  =          6.4E-09 Ry
     - averaged Fock potential =       1.33970068 Ry
     + Fock energy (ACE)       =      -0.66984516 Ry

     EXX self-consistency reached

     Forces acting on atoms (cartesian axes, Ry/au):

     atom    1 type  1   force =     0.00000000    0.00000000    0.00000000
     The non-local contrib.  to forces
     atom    1 type  1   force =     0.00000000    0.00000000    0.00000000
     The ionic contribution  to forces
     atom    1 type  1   force =    -0.00000000   -0.00000000   -0.00000000
     The local contribution  to forces
     atom    1 type  1   force =     0.00000000    0.00000000    0.00000000
     The core correction contribution to forces
     atom    1 type  1   force =     0.00000000    0.00000000    0.00000000
     The Hubbard contrib.    to forces
     atom    1 type  1   force =     0.00000000    0.00000000    0.00000000
     The SCF correction term to forces
     atom    1 type  1   force =     0.00000000    0.00000000    0.00000000

     Total force =     0.000000     Total SCF correction =     0.000000

     Computing stress (Cartesian axis) and pressure

          total   stress  (Ry/bohr**3)                   (kbar)     P=       -0.81
  -0.00000462   0.00000000   0.00000000           -0.68        0.00        0.00
   0.00000000  -0.00000462   0.00000000            0.00       -0.68        0.00
   0.00000000   0.00000000  -0.00000721            0.00        0.00       -1.06

     Writing all to output data dir ./outdir/1c_clat.save/

     General routines

     Parallel routines

     EXX routines

   This run was terminated on:  14:58:22   4Jun2023

   JOB DONE.