     Program PWSCF v.7.2 starts on  1Jun2023 at  2:18:37

     Waiting for input...
     Reading input from standard input

     Current dimensions of program PWSCF are:
     Max number of different atomic species (ntypx) = 10
     Max number of k-points (npk) =  40000
     Max angular momentum in pseudopotentials (lmaxx) =  4
     file Si.pbe-n-kjpaw_psl.1.0.0.UPF: wavefunction(s)  3S 3P renormalized

     IMPORTANT: XC functional enforced from input :
     Exchange-correlation= GAUPBE
                           (   1   4  20   4   0   0   0)
     EXX-fraction              =        0.24
     Any further DFT definition will be discarded
     Please, verify this is what you really want

     Message from routine set_cutoff:
     ecutrho < 4*ecutwfc, are you sure?
     Message from routine setup :
     BEWARE: nonlinear core correction is not consistent with hybrid XC
     Message from routine setup:
     Warning: ecutfock not valid for US/PAW, ignored

     Subspace diagonalization in iterative solution of the eigenvalue problem:
     a serial algorithm will be used

     EXX: q-point mesh:     2    2    2
     EXX: setup a grid of 96 q-points centered on each k-point
     (k+q)-points:
   0.0000000   0.0000000   0.0000000         1    1
   0.5000000  -0.5000000   0.5000000         4    1
  -0.5000000  -0.5000000  -0.5000000         4    3
   0.0000000  -1.0000000   0.0000000        13    1
   0.5000000   0.5000000  -0.5000000         4    4
  -1.0000000   0.0000000   0.0000000        13    5
   0.0000000   0.0000000  -1.0000000        13   13
  -0.5000000   0.5000000   0.5000000         4    2
  -0.1666667   0.1666667  -0.1666667         2    1
   0.3333333  -0.3333333   0.3333333         3   -1
  -0.6666667  -0.3333333  -0.6666667         7    3
   0.8333333   0.1666667   0.8333333        11   -3
   0.3333333   0.6666667  -0.6666667         7   -8
  -0.1666667  -0.8333333   0.8333333        11    8
   0.8333333  -0.8333333  -0.1666667        11   15
  -0.6666667   0.6666667   0.3333333         7  -15
  -0.3333333   0.3333333  -0.3333333         3    1
   0.1666667  -0.1666667   0.1666667         2   -1
  -0.8333333  -0.1666667  -0.8333333        11    3
   0.6666667   0.3333333   0.6666667         7   -3
   0.1666667   0.8333333  -0.8333333        11   -8
  -0.3333333  -0.6666667   0.6666667         7    8
   0.6666667  -0.6666667  -0.3333333         7   15
  -0.8333333   0.8333333   0.1666667        11  -15
   0.0000000   0.3333333   0.0000000         5    1
   0.5000000  -0.1666667   0.5000000         8    1
  -0.5000000  -0.1666667  -0.5000000         8    3
   0.0000000  -0.6666667   0.0000000        10   -1
  -0.5000000  -0.1666667   0.5000000         8   -4
   1.0000000   0.3333333   0.0000000        16   -5
   0.0000000   0.3333333   1.0000000        16  -17
   0.5000000  -0.1666667  -0.5000000         8   -2
  -0.1666667   0.5000000  -0.1666667         6    1
   0.3333333   0.0000000   0.3333333         9    1
  -0.6666667   0.0000000  -0.6666667        12   -1
  -0.1666667  -0.5000000  -0.1666667         6   -3
   0.3333333  -1.0000000  -0.6666667        14  -21
  -0.1666667  -0.5000000   0.8333333        15    8
  -0.1666667   0.5000000   0.8333333        15   -6
  -0.6666667  -1.0000000   0.3333333        14   14
   0.6666667  -0.3333333   0.6666667         7    1
   0.1666667   0.1666667   0.1666667         2    3
  -0.8333333   0.1666667  -0.8333333        11   -1
  -0.3333333  -0.3333333  -0.3333333         3   -3
   0.1666667  -0.8333333  -0.8333333        11    6
   0.6666667   0.6666667  -0.3333333         7  -14
  -0.3333333   0.6666667   0.6666667         7   -6
  -0.8333333  -0.8333333   0.1666667        11   14
   0.0000000   0.6666667   0.0000000        10    1
   0.5000000   0.1666667   0.5000000         8   -3
  -0.5000000   0.1666667  -0.5000000         8   -1
   0.0000000  -0.3333333   0.0000000         5   -1
  -0.5000000   0.1666667   0.5000000         8    2
   0.0000000  -0.3333333  -1.0000000        16   17
  -1.0000000  -0.3333333   0.0000000        16    5
   0.5000000   0.1666667  -0.5000000         8    4
   0.8333333  -0.1666667   0.8333333        11    1
   0.3333333   0.3333333   0.3333333         3    3
  -0.6666667   0.3333333  -0.6666667         7   -1
  -0.1666667  -0.1666667  -0.1666667         2   -3
[...]
   0.0000000   0.3333333   0.3333333         9   -6
  -1.0000000   0.3333333  -0.6666667        14   10
  -0.5000000  -0.1666667  -0.1666667         6    7
   0.0000000  -0.6666667  -0.6666667        12    6
  -0.5000000  -0.1666667   0.8333333        15   -4
   0.5000000  -0.1666667  -0.1666667         6   -6
  -1.0000000  -0.6666667   0.3333333        14  -17
  -0.3333333  -1.0000000   0.0000000        16    1
   0.1666667   0.5000000   0.5000000         8    7
   0.1666667  -0.5000000   0.5000000         8   -5
  -0.3333333   0.0000000   0.0000000         5   -5
   0.1666667  -0.5000000  -0.5000000         8    6
  -0.3333333   0.0000000   1.0000000        16  -13
   0.6666667   0.0000000   0.0000000        10    5
   0.1666667   0.5000000  -0.5000000         8   -8

     Using Slab Decomposition

     bravais-lattice index     =            2
     lattice parameter (alat)  =      10.2076  a.u.
     unit-cell volume          =     265.8955 (a.u.)^3
     number of atoms/cell      =            2
     number of atomic types    =            1
     number of electrons       =         8.00
     number of Kohn-Sham states=            8
     kinetic-energy cutoff     =      44.0000  Ry
     charge density cutoff     =     175.0000  Ry
     cutoff for Fock operator  =     175.0000  Ry
     scf convergence threshold =      1.0E-06
     mixing beta               =       0.7000
     number of iterations used =            8  plain     mixing
     Exchange-correlation= GAUPBE
                           (   1   4  20   4   0   0   0)
     EXX-fraction              =        0.24

     celldm(1)=  10.207600  celldm(2)=   0.000000  celldm(3)=   0.000000
     celldm(4)=   0.000000  celldm(5)=   0.000000  celldm(6)=   0.000000

     crystal axes: (cart. coord. in units of alat)
               a(1) = (  -0.500000   0.000000   0.500000 )
               a(2) = (   0.000000   0.500000   0.500000 )
               a(3) = (  -0.500000   0.500000   0.000000 )

     reciprocal axes: (cart. coord. in units 2 pi/alat)
               b(1) = ( -1.000000 -1.000000  1.000000 )
               b(2) = (  1.000000  1.000000  1.000000 )
               b(3) = ( -1.000000  1.000000 -1.000000 )

     PseudoPot. # 1 for Si read from file:
     ./Si.pbe-n-kjpaw_psl.1.0.0.UPF
     MD5 check sum: c39c59da582df4a0d9f10159256ea34e
     Pseudo is Projector augmented-wave + core cor, Zval =  4.0
     Generated using &quot;atomic&quot; code by A. Dal Corso  v.6.3
     Shape of augmentation charge: PSQ
     Using radial grid of 1141 points,  6 beta functions with:
                l(1) =   0
                l(2) =   0
                l(3) =   1
                l(4) =   1
                l(5) =   2
                l(6) =   2
     Q(r) pseudized with 0 coefficients

     atomic species   valence    mass     pseudopotential
        Si             4.00    28.08600     Si( 1.00)

     48 Sym. Ops., with inversion, found (24 have fractional translation)

   Cartesian axes

     site n.     atom                  positions (alat units)
         1           Si  tau(   1) = (   0.0000000   0.0000000   0.0000000  )
         2           Si  tau(   2) = (   0.2500000   0.2500000   0.2500000  )

     number of k points=    16
                       cart. coord. in units 2pi/alat
        k(    1) = (   0.0000000   0.0000000   0.0000000), wk =   0.0092593
        k(    2) = (  -0.1666667   0.1666667  -0.1666667), wk =   0.0740741
        k(    3) = (  -0.3333333   0.3333333  -0.3333333), wk =   0.0740741
        k(    4) = (   0.5000000  -0.5000000   0.5000000), wk =   0.0370370
        k(    5) = (   0.0000000   0.3333333   0.0000000), wk =   0.0555556
        k(    6) = (  -0.1666667   0.5000000  -0.1666667), wk =   0.2222222
        k(    7) = (   0.6666667  -0.3333333   0.6666667), wk =   0.2222222
        k(    8) = (   0.5000000  -0.1666667   0.5000000), wk =   0.2222222
        k(    9) = (   0.3333333   0.0000000   0.3333333), wk =   0.1111111
        k(   10) = (   0.0000000   0.6666667   0.0000000), wk =   0.0555556
        k(   11) = (   0.8333333  -0.1666667   0.8333333), wk =   0.2222222
        k(   12) = (   0.6666667  -0.0000000   0.6666667), wk =   0.1111111
        k(   13) = (   0.0000000  -1.0000000   0.0000000), wk =   0.0277778
        k(   14) = (   0.6666667  -0.3333333   1.0000000), wk =   0.2222222
        k(   15) = (   0.5000000  -0.1666667   0.8333333), wk =   0.2222222
        k(   16) = (  -0.3333333  -1.0000000   0.0000000), wk =   0.1111111

     Check: negative core charge=   -0.000001

     Initial potential from superposition of free atoms

     starting charge       7.9989, renormalised to       8.0000
     Starting wfcs are    8 randomized atomic wfcs

     Self-consistent Calculation

     iteration #  1     ecut=    44.00 Ry     beta= 0.70
     Davidson diagonalization with overlap
     ethr =  1.00E-02,  avg # of iterations =  3.6

     Threshold (ethr) on eigenvalues was too large:
     Diagonalizing with lowered threshold

     Davidson diagonalization with overlap
     ethr =  6.76E-04,  avg # of iterations =  2.2

     total energy              =     -93.44779203 Ry
     estimated scf accuracy    <       0.05821335 Ry

[...]

     End of self-consistent calculation

          k = 0.0000 0.0000 0.0000 (  1363 PWs)   bands (ev):

    -5.6958   6.3815   6.3815   6.3815   8.9468   8.9468   8.9468   9.9274

          k =-0.1667 0.1667-0.1667 (  1321 PWs)   bands (ev):

[...]

     highest occupied, lowest unoccupied level (ev):     6.3815    7.0555

!    total energy              =     -93.45061772 Ry
     estimated scf accuracy    <       0.00000033 Ry

     convergence has been achieved in   4 iterations

     Using ACE for calculation of exact exchange

     EXX: now go back to refine exchange calculation

[...]

     Using ACE for calculation of exact exchange
     ACE projected onto     8 (nbndproj) and applied to     8 (nbnd) bands

     total energy              =     -88.73631058 Ry
     Harris-Foulkes estimate   =     -88.73632848 Ry
     est. exchange err (dexx)  =       0.00019560 Ry
     - averaged Fock potential =       1.75804514 Ry
     + Fock energy (ACE)       =      -0.88165418 Ry

[...]

     total energy              =     -88.73635405 Ry
     estimated scf accuracy    <       0.00000794 Ry

[...]

     total energy              =     -88.73637377 Ry
     Harris-Foulkes estimate   =     -88.73635936 Ry
     est. exchange err (dexx)  =       0.00000476 Ry
     - averaged Fock potential =       1.76407448 Ry
     + Fock energy (ACE)       =      -0.88242506 Ry

     EXX: now go back to refine exchange calculation

     Self-consistent Calculation

     iteration #  1     ecut=    44.00 Ry     beta= 0.70
     Davidson diagonalization with overlap
     ethr =  9.92E-08,  avg # of iterations =  1.9

     Threshold (ethr) on eigenvalues was too large:
     Diagonalizing with lowered threshold

     Davidson diagonalization with overlap
     ethr =  2.34E-09,  avg # of iterations =  1.9

     End of self-consistent calculation

[...]

          k = 0.5000-0.1667 0.8333 (  1302 PWs)   bands (ev):

[...]

          k =-0.3333-1.0000 0.0000 (  1312 PWs)   bands (ev):

    -3.0126  -3.0126   1.8262   1.8262   9.4515   9.4515  13.6774  13.6774

     highest occupied, lowest unoccupied level (ev):     5.5713    7.3465

!    total energy              =     -88.73637724 Ry
     estimated scf accuracy    <       0.00000019 Ry

     convergence has been achieved in   1 iterations

     Using ACE for calculation of exact exchange
     ACE projected onto     8 (nbndproj) and applied to     8 (nbnd) bands

!!   total energy              =     -88.73637738 Ry
     Harris-Foulkes estimate   =     -88.73637463 Ry
     est. exchange err (dexx)  =       0.00000014 Ry
     - averaged Fock potential =       1.76497840 Ry
     + Fock energy (ACE)       =      -0.88255348 Ry

     EXX self-consistency reached

     General routines

     Parallel routines

     EXX routines

     EXX+US  routines

     EXX+PAW routines

   This run was terminated on:   2:36:59   1Jun2023

   JOB DONE.