     Program PWSCF v.7.2 starts on  2Jun2023 at  1:34:49

     Reading input from 1_c.scf.in

     Current dimensions of program PWSCF are:
     Max number of different atomic species (ntypx) = 10
     Max number of k-points (npk) =  40000
     Max angular momentum in pseudopotentials (lmaxx) =  4
     file C.rel-pbe-n-kjpaw_psl.1.0.0.UPF: wavefunction(s)  2S 2P 2P renormalized

     Subspace diagonalization in iterative solution of the eigenvalue problem:
     a serial algorithm will be used

     Using Slab Decomposition

     bravais-lattice index     =            6
     lattice parameter (alat)  =      18.8973  a.u.
     unit-cell volume          =     866.9585 (a.u.)^3
     number of atoms/cell      =            1
     number of atomic types    =            1
     number of electrons       =         4.00
     number of Kohn-Sham states=           12
     kinetic-energy cutoff     =      45.0000  Ry
     charge density cutoff     =     180.0000  Ry
     scf convergence threshold =      1.0E-06
     mixing beta               =       0.7000
     number of iterations used =            8  plain     mixing
     Exchange-correlation= SLA  PW   PBX  PBC
                           (   1   4   3   4   0   0   0)
     Non magnetic calculation with spin-orbit

     celldm(1)=  18.897261  celldm(2)=   1.000000  celldm(3)=   0.128470
     celldm(4)=   0.000000  celldm(5)=   0.000000  celldm(6)=   0.000000

     crystal axes: (cart. coord. in units of alat)
               a(1) = (   1.000000   0.000000   0.000000 )
               a(2) = (   0.000000   1.000000   0.000000 )
               a(3) = (   0.000000   0.000000   0.128470 )

     reciprocal axes: (cart. coord. in units 2 pi/alat)
               b(1) = (  1.000000  0.000000  0.000000 )
               b(2) = (  0.000000  1.000000  0.000000 )
               b(3) = (  0.000000  0.000000  7.783918 )

     PseudoPot. # 1 for C  read from file:
     ./C.rel-pbe-n-kjpaw_psl.1.0.0.UPF
     MD5 check sum: dd2b8f743de1f3a10095e4114fb28074
     Pseudo is Projector augmented-wave + core cor, Zval =  4.0
     Generated using &quot;atomic&quot; code by A. Dal Corso  v.6.3
     Shape of augmentation charge: PSQ
     Using radial grid of 1073 points,  6 beta functions with:
                l(1) =   0
                l(2) =   0
                l(3) =   1
                l(4) =   1
                l(5) =   1
                l(6) =   1
     Q(r) pseudized with 0 coefficients

     atomic species   valence    mass     pseudopotential
        C              4.00    12.01100     C ( 1.00)

     16 Sym. Ops., with inversion, found

   Cartesian axes

     site n.     atom                  positions (alat units)
         1           C   tau(   1) = (   0.0000000   0.0000000   0.0000000  )

     number of k points=    26  Methfessel-Paxton smearing, width (Ry)=  0.0100
                       cart. coord. in units 2pi/alat
        k(    1) = (  -0.5000000  -0.5000000   0.0763129), wk =   0.0392157
        k(    2) = (  -0.5000000  -0.5000000   0.2289388), wk =   0.0392157
        k(    3) = (  -0.5000000  -0.5000000   0.3815646), wk =   0.0392157
        k(    4) = (  -0.5000000  -0.5000000   0.5341905), wk =   0.0392157
        k(    5) = (  -0.5000000  -0.5000000   0.6868163), wk =   0.0392157
        k(    6) = (  -0.5000000  -0.5000000   0.8394422), wk =   0.0392157
        k(    7) = (  -0.5000000  -0.5000000   0.9920680), wk =   0.0392157
        k(    8) = (  -0.5000000  -0.5000000   1.1446939), wk =   0.0392157
        k(    9) = (  -0.5000000  -0.5000000   1.2973197), wk =   0.0392157
        k(   10) = (  -0.5000000  -0.5000000   1.4499456), wk =   0.0392157
        k(   11) = (  -0.5000000  -0.5000000   1.6025714), wk =   0.0392157
        k(   12) = (  -0.5000000  -0.5000000   1.7551973), wk =   0.0392157
        k(   13) = (  -0.5000000  -0.5000000   1.9078231), wk =   0.0392157
        k(   14) = (  -0.5000000  -0.5000000   2.0604490), wk =   0.0392157
        k(   15) = (  -0.5000000  -0.5000000   2.2130748), wk =   0.0392157
        k(   16) = (  -0.5000000  -0.5000000   2.3657007), wk =   0.0392157
        k(   17) = (  -0.5000000  -0.5000000   2.5183265), wk =   0.0392157
        k(   18) = (  -0.5000000  -0.5000000   2.6709524), wk =   0.0392157
        k(   19) = (  -0.5000000  -0.5000000   2.8235783), wk =   0.0392157
        k(   20) = (  -0.5000000  -0.5000000   2.9762041), wk =   0.0392157
        k(   21) = (  -0.5000000  -0.5000000   3.1288300), wk =   0.0392157
        k(   22) = (  -0.5000000  -0.5000000   3.2814558), wk =   0.0392157
        k(   23) = (  -0.5000000  -0.5000000   3.4340817), wk =   0.0392157
        k(   24) = (  -0.5000000  -0.5000000   3.5867075), wk =   0.0392157
        k(   25) = (  -0.5000000  -0.5000000   3.7393334), wk =   0.0392157
        k(   26) = (  -0.5000000  -0.5000000  -3.8919592), wk =   0.0196078

     Check: negative core charge=   -0.000012

     Initial potential from superposition of free atoms

     starting charge       4.0000, renormalised to       4.0000

     negative rho (up, down):  4.417E-04 0.000E+00
     Starting wfcs are    8 randomized atomic wfcs +    4 random wfcs
     Checking if some PAW data can be deallocated...

     Self-consistent Calculation

     iteration #  1     ecut=    45.00 Ry     beta= 0.70
     Davidson diagonalization with overlap
     ethr =  1.00E-02,  avg # of iterations =  6.5

     negative rho (up, down):  6.459E-04 0.000E+00

     total energy              =     -18.34528591 Ry
     estimated scf accuracy    <       0.12824818 Ry

[...]

     iteration #  3     ecut=    45.00 Ry     beta= 0.70
     Davidson diagonalization with overlap
     ethr =  9.55E-05,  avg # of iterations =  4.0

[...]

     total energy              =     -18.37157484 Ry
     estimated scf accuracy    <       0.00009892 Ry

     iteration #  4     ecut=    45.00 Ry     beta= 0.70
     Davidson diagonalization with overlap
     c_bands:  1 eigenvalues not converged
     c_bands:  2 eigenvalues not converged
     c_bands:  2 eigenvalues not converged
     c_bands:  1 eigenvalues not converged
     c_bands:  1 eigenvalues not converged
     c_bands:  3 eigenvalues not converged
     ethr =  2.47E-06,  avg # of iterations = 13.3

     negative rho (up, down):  7.628E-04 0.000E+00

     End of self-consistent calculation

          k =-0.5000-0.5000 0.0763 (  4496 PWs)   bands (ev):

   -20.6779 -20.6779  -9.7283  -9.7283  -9.7229  -9.7229   0.1761   0.1761
     0.3279   0.3280   0.3299   0.3422

[...]

          k =-0.5000-0.5000-3.8920 (  4320 PWs)   bands (ev):

   -13.4841 -13.4841   4.0947   4.0947   6.6704   6.6704   6.6815   6.6815
    18.3851  18.3852  18.3852  18.3852

     the Fermi energy is    -4.5967 ev

!    total energy              =     -18.37157825 Ry
     total all-electron energy =       -76.135714 Ry
     estimated scf accuracy    <       0.00000017 Ry
     smearing contrib. (-TS)   =      -0.00016153 Ry
     internal energy E=F+TS    =     -18.37141672 Ry

     The total energy is F=E-TS. E is the sum of the following terms:
     one-electron contribution =     -32.76949849 Ry
     hartree contribution      =      16.86234588 Ry
     xc contribution           =      -4.53991098 Ry
     ewald contribution        =       8.24599272 Ry
     one-center paw contrib.   =      -6.17034585 Ry

     convergence has been achieved in   4 iterations

     Writing all to output data dir ./outdir/soc.save/

     General routines

     Parallel routines

   This run was terminated on:   1:35:25   2Jun2023

   JOB DONE.