     Program PWSCF v.7.2 starts on 16May2023 at  0:11:44

     Reading input from 1_c.scf.in

     Current dimensions of program PWSCF are:
     Max number of different atomic species (ntypx) = 10
     Max number of k-points (npk) =  40000
     Max angular momentum in pseudopotentials (lmaxx) =  4
     file C.pbe-n-kjpaw_psl.1.0.0.UPF: wavefunction(s)  2S 2P renormalized
     Found identity + (  0.0000  0.0000  0.5000) symmetry
     This is a supercell, fractional translations are disabled

     Subspace diagonalization in iterative solution of the eigenvalue problem:
     a serial algorithm will be used

     Using Slab Decomposition

     bravais-lattice index     =            6
     lattice parameter (alat)  =      18.8973  a.u.
     unit-cell volume          =    1730.6409 (a.u.)^3
     number of atoms/cell      =            2
     number of atomic types    =            1
     number of electrons       =         8.00
     number of Kohn-Sham states=            8
     kinetic-energy cutoff     =      45.0000  Ry
     charge density cutoff     =     180.0000  Ry
     scf convergence threshold =      1.0E-06
     mixing beta               =       0.7000
     number of iterations used =            8  plain     mixing
     Exchange-correlation= SLA  PW   PBX  PBC
                           (   1   4   3   4   0   0   0)

     celldm(1)=  18.897261  celldm(2)=   1.000000  celldm(3)=   0.256455
     celldm(4)=   0.000000  celldm(5)=   0.000000  celldm(6)=   0.000000

     crystal axes: (cart. coord. in units of alat)
               a(1) = (   1.000000   0.000000   0.000000 )
               a(2) = (   0.000000   1.000000   0.000000 )
               a(3) = (   0.000000   0.000000   0.256455 )

     reciprocal axes: (cart. coord. in units 2 pi/alat)
               b(1) = (  1.000000  0.000000  0.000000 )
               b(2) = (  0.000000  1.000000  0.000000 )
               b(3) = (  0.000000  0.000000  3.899327 )

     PseudoPot. # 1 for C  read from file:
     /home/ubuntu/aws/492/C.pbe-n-kjpaw_psl.1.0.0.UPF
     MD5 check sum: 5f16ad9a65e90284d1d834d4ab3b0f7d
     Pseudo is Projector augmented-wave + core cor, Zval =  4.0
     Generated using &quot;atomic&quot; code by A. Dal Corso  v.6.3
     Shape of augmentation charge: PSQ
     Using radial grid of 1073 points,  4 beta functions with:
                l(1) =   0
                l(2) =   0
                l(3) =   1
                l(4) =   1
     Q(r) pseudized with 0 coefficients

     atomic species   valence    mass     pseudopotential
        C              4.00    12.01100     C ( 1.00)

     16 Sym. Ops., with inversion, found

   Cartesian axes

     site n.     atom                  positions (alat units)
         1           C   tau(   1) = (   0.0000000   0.0000000   0.0000000  )
         2           C   tau(   2) = (   0.0000000   0.0000000   0.1282273  )

     number of k points=    16  Methfessel-Paxton smearing, width (Ry)=  0.0100
                       cart. coord. in units 2pi/alat
        k(    1) = (  -0.5000000  -0.5000000   0.0628924), wk =   0.1290323
        k(    2) = (  -0.5000000  -0.5000000   0.1886771), wk =   0.1290323
        k(    3) = (  -0.5000000  -0.5000000   0.3144618), wk =   0.1290323
        k(    4) = (  -0.5000000  -0.5000000   0.4402466), wk =   0.1290323
        k(    5) = (  -0.5000000  -0.5000000   0.5660313), wk =   0.1290323
        k(    6) = (  -0.5000000  -0.5000000   0.6918160), wk =   0.1290323
        k(    7) = (  -0.5000000  -0.5000000   0.8176008), wk =   0.1290323
        k(    8) = (  -0.5000000  -0.5000000   0.9433855), wk =   0.1290323
        k(    9) = (  -0.5000000  -0.5000000   1.0691703), wk =   0.1290323
        k(   10) = (  -0.5000000  -0.5000000   1.1949550), wk =   0.1290323
        k(   11) = (  -0.5000000  -0.5000000   1.3207397), wk =   0.1290323
        k(   12) = (  -0.5000000  -0.5000000   1.4465245), wk =   0.1290323
        k(   13) = (  -0.5000000  -0.5000000   1.5723092), wk =   0.1290323
        k(   14) = (  -0.5000000  -0.5000000   1.6980939), wk =   0.1290323
        k(   15) = (  -0.5000000  -0.5000000   1.8238787), wk =   0.1290323
        k(   16) = (  -0.5000000  -0.5000000  -1.9496634), wk =   0.0645161

     Check: negative core charge=   -0.000012

     Initial potential from superposition of free atoms

     starting charge       7.9999, renormalised to       8.0000

     negative rho (up, down):  8.800E-04 0.000E+00
     Starting wfcs are    8 randomized atomic wfcs
     Checking if some PAW data can be deallocated...

     Self-consistent Calculation

     iteration #  1     ecut=    45.00 Ry     beta= 0.70
     Davidson diagonalization with overlap
     ethr =  1.00E-02,  avg # of iterations =  4.2

     negative rho (up, down):  1.274E-03 0.000E+00

     total energy              =     -36.69456534 Ry
     estimated scf accuracy    <       0.25355409 Ry

[...]

     iteration #  6     ecut=    45.00 Ry     beta= 0.70
     Davidson diagonalization with overlap
     c_bands:  1 eigenvalues not converged
     ethr =  2.31E-08,  avg # of iterations =  7.2

[...]

     total energy              =     -36.74324205 Ry
     estimated scf accuracy    <       0.00000141 Ry

     iteration #  7     ecut=    45.00 Ry     beta= 0.70
     Davidson diagonalization with overlap
     ethr =  1.77E-08,  avg # of iterations =  1.0

     negative rho (up, down):  1.535E-03 0.000E+00

     End of self-consistent calculation

          k =-0.5000-0.5000 0.0629 (  8788 PWs)   bands (ev):

   -20.6877 -13.4980  -9.7387  -9.7387   0.1791   0.3356   0.3356   0.3990

[...]

          k =-0.5000-0.5000-1.9497 (  8848 PWs)   bands (ev):

   -17.7250 -17.7248  -4.4247  -4.4247  -4.4242  -4.4242   5.2519   5.2520

     the Fermi energy is    -4.4244 ev

!    total energy              =     -36.74324211 Ry
     total all-electron energy =      -152.271437 Ry
     estimated scf accuracy    <       0.00000007 Ry
     smearing contrib. (-TS)   =      -0.00036399 Ry
     internal energy E=F+TS    =     -36.74287812 Ry

     The total energy is F=E-TS. E is the sum of the following terms:
     one-electron contribution =     -65.69134978 Ry
     hartree contribution      =      33.80258431 Ry
     xc contribution           =      -9.08642942 Ry
     ewald contribution        =      16.57315689 Ry
     one-center paw contrib.   =     -12.34084011 Ry

     convergence has been achieved in   7 iterations

     Writing all to output data dir ./outdir/1c_112.save/

     General routines

     Parallel routines

   This run was terminated on:   0:12: 5  16May2023

   JOB DONE.