     Program PWSCF v.7.2 starts on 28May2023 at  0:46: 3

     Reading input from 1.b2n2.scf.in

     Current dimensions of program PWSCF are:
     Max number of different atomic species (ntypx) = 10
     Max number of k-points (npk) =  40000
     Max angular momentum in pseudopotentials (lmaxx) =  4
     Found identity + (  0.0000 -0.5000  0.0000) symmetry
     This is a supercell, fractional translations are disabled

     Subspace diagonalization in iterative solution of the eigenvalue problem:
     a serial algorithm will be used

     Using Slab Decomposition

     bravais-lattice index     =            8
     lattice parameter (alat)  =       8.6360  a.u.
     unit-cell volume          =    1541.9944 (a.u.)^3
     number of atoms/cell      =            8
     number of atomic types    =            2
     number of electrons       =        32.00
     number of Kohn-Sham states=           30
     kinetic-energy cutoff     =      80.0000  Ry
     charge density cutoff     =     320.0000  Ry
     scf convergence threshold =      1.0E-08
     mixing beta               =       0.7000
     number of iterations used =            8  plain     mixing
     Exchange-correlation= PBE
                           (   1   4   3   4   0   0   0)

     celldm(1)=   8.636048  celldm(2)=   1.094092  celldm(3)=   2.188184
     celldm(4)=   0.000000  celldm(5)=   0.000000  celldm(6)=   0.000000

     crystal axes: (cart. coord. in units of alat)
               a(1) = (   1.000000   0.000000   0.000000 )
               a(2) = (   0.000000   1.094092   0.000000 )
               a(3) = (   0.000000   0.000000   2.188184 )

     reciprocal axes: (cart. coord. in units 2 pi/alat)
               b(1) = (  1.000000  0.000000  0.000000 )
               b(2) = (  0.000000  0.914000  0.000000 )
               b(3) = (  0.000000  0.000000  0.457000 )

     PseudoPot. # 1 for B  read from file:
     ../B_pbe_v1.01.uspp.F.UPF
     MD5 check sum: d081ebb89d0c768e112975f650467a00
     Pseudo is Ultrasoft + core correction, Zval =  3.0
     Generated by new atomic code, or converted to UPF format
     Using radial grid of  781 points,  4 beta functions with:
                l(1) =   0
                l(2) =   0
                l(3) =   1
                l(4) =   1
     Q(r) pseudized with  8 coefficients,  rinner =    1.100   1.100   1.100

     PseudoPot. # 2 for N  read from file:
     ../N.oncvpsp.upf
     MD5 check sum: 563d65bfb082928f0c9eb97172f6c357
     Pseudo is Norm-conserving + core correction, Zval =  5.0
     Generated using ONCVPSP code by D. R. Hamann
     Using radial grid of 1058 points,  4 beta functions with:
                l(1) =   0
                l(2) =   0
                l(3) =   1
                l(4) =   1

     atomic species   valence    mass     pseudopotential
        B              3.00    10.81100     B ( 1.00)
        N              5.00    14.00670     N ( 1.00)

     No symmetry found

   Cartesian axes

     site n.     atom                  positions (alat units)
         1           B   tau(   1) = (   0.1859956   0.4093249   0.1094092  )
         2           B   tau(   2) = (   0.8161926   0.4093249   0.1094092  )
         3           N   tau(   3) = (   0.3435449   0.1367615   0.1094092  )
         4           N   tau(   4) = (   0.6586433   0.1367615   0.1094092  )
         5           B   tau(   5) = (   0.1859956   0.9563709   0.1094092  )
         6           B   tau(   6) = (   0.8161926   0.9563709   0.1094092  )
         7           N   tau(   7) = (   0.3435449   0.6838074   0.1094092  )
         8           N   tau(   8) = (   0.6586433   0.6838074   0.1094092  )

     number of k points=    41
                       cart. coord. in units 2pi/alat
        k(    1) = (   0.0000000   0.0000000   0.0000000), wk =   0.0246914
        k(    2) = (   0.0000000   0.1015556   0.0000000), wk =   0.0493827
        k(    3) = (   0.0000000   0.2031111   0.0000000), wk =   0.0493827
        k(    4) = (   0.0000000   0.3046667   0.0000000), wk =   0.0493827
        k(    5) = (   0.0000000   0.4062222   0.0000000), wk =   0.0493827
        k(    6) = (   0.1111111   0.0000000   0.0000000), wk =   0.0493827
        k(    7) = (   0.1111111   0.1015556   0.0000000), wk =   0.0493827
        k(    8) = (   0.1111111   0.2031111   0.0000000), wk =   0.0493827
        k(    9) = (   0.1111111   0.3046667   0.0000000), wk =   0.0493827
        k(   10) = (   0.1111111   0.4062222   0.0000000), wk =   0.0493827
        k(   11) = (   0.2222222   0.0000000   0.0000000), wk =   0.0493827
        k(   12) = (   0.2222222   0.1015556   0.0000000), wk =   0.0493827
        k(   13) = (   0.2222222   0.2031111   0.0000000), wk =   0.0493827
        k(   14) = (   0.2222222   0.3046667   0.0000000), wk =   0.0493827
        k(   15) = (   0.2222222   0.4062222   0.0000000), wk =   0.0493827
        k(   16) = (   0.3333333   0.0000000   0.0000000), wk =   0.0493827
        k(   17) = (   0.3333333   0.1015556   0.0000000), wk =   0.0493827
        k(   18) = (   0.3333333   0.2031111   0.0000000), wk =   0.0493827
        k(   19) = (   0.3333333   0.3046667   0.0000000), wk =   0.0493827
        k(   20) = (   0.3333333   0.4062222   0.0000000), wk =   0.0493827
        k(   21) = (   0.4444444   0.0000000   0.0000000), wk =   0.0493827
        k(   22) = (   0.4444444   0.1015556   0.0000000), wk =   0.0493827
        k(   23) = (   0.4444444   0.2031111   0.0000000), wk =   0.0493827
        k(   24) = (   0.4444444   0.3046667   0.0000000), wk =   0.0493827
        k(   25) = (   0.4444444   0.4062222   0.0000000), wk =   0.0493827
        k(   26) = (  -0.1111111   0.1015556   0.0000000), wk =   0.0493827
        k(   27) = (  -0.1111111   0.2031111   0.0000000), wk =   0.0493827
        k(   28) = (  -0.1111111   0.3046667   0.0000000), wk =   0.0493827
        k(   29) = (  -0.1111111   0.4062222   0.0000000), wk =   0.0493827
        k(   30) = (  -0.2222222   0.1015556   0.0000000), wk =   0.0493827
        k(   31) = (  -0.2222222   0.2031111   0.0000000), wk =   0.0493827
        k(   32) = (  -0.2222222   0.3046667   0.0000000), wk =   0.0493827
        k(   33) = (  -0.2222222   0.4062222   0.0000000), wk =   0.0493827
        k(   34) = (  -0.3333333   0.1015556   0.0000000), wk =   0.0493827
        k(   35) = (  -0.3333333   0.2031111   0.0000000), wk =   0.0493827
        k(   36) = (  -0.3333333   0.3046667   0.0000000), wk =   0.0493827
        k(   37) = (  -0.3333333   0.4062222   0.0000000), wk =   0.0493827
        k(   38) = (  -0.4444444   0.1015556   0.0000000), wk =   0.0493827
        k(   39) = (  -0.4444444   0.2031111   0.0000000), wk =   0.0493827
        k(   40) = (  -0.4444444   0.3046667   0.0000000), wk =   0.0493827
        k(   41) = (  -0.4444444   0.4062222   0.0000000), wk =   0.0493827

     Check: negative core charge=   -0.000004

     Initial potential from superposition of free atoms

     starting charge      31.9988, renormalised to      32.0000

     negative rho (up, down):  2.418E-08 0.000E+00
     Starting wfcs are   32 randomized atomic wfcs

     Self-consistent Calculation

     iteration #  1     ecut=    80.00 Ry     beta= 0.70
     Davidson diagonalization with overlap
     ethr =  1.00E-02,  avg # of iterations =  7.2

     total energy              =    -109.07490885 Ry
     estimated scf accuracy    <       0.91738759 Ry

[...]

     negative rho (up, down):  7.781E-08 0.000E+00

[...]

     iteration #  5     ecut=    80.00 Ry     beta= 0.70
     Davidson diagonalization with overlap
     c_bands:  1 eigenvalues not converged
     c_bands:  1 eigenvalues not converged
     ethr =  1.01E-05,  avg # of iterations = 10.9

[...]

     total energy              =    -109.26346971 Ry
     estimated scf accuracy    <       0.00000001 Ry

     iteration # 11     ecut=    80.00 Ry     beta= 0.70
     Davidson diagonalization with overlap
     ethr =  3.18E-11,  avg # of iterations =  1.7

     negative rho (up, down):  9.899E-06 0.000E+00

     End of self-consistent calculation

          k = 0.0000 0.0000 0.0000 ( 18655 PWs)   bands (ev):

   -21.7372 -20.0369 -16.0480 -14.6586 -12.5404 -11.7860 -10.2789  -8.6526
    -7.9437  -7.1033  -5.2438  -4.9439  -4.2316  -3.5833  -2.9615  -0.7580
    -0.1077   1.3841   2.1590   4.2720   4.4242   4.5642   4.9406   6.1949
     7.4451   7.4882   8.0929   8.3968   8.6659   9.0229

[...]

          k = 0.4444 0.4062 0.0000 ( 18616 PWs)   bands (ev):

[...]

          k =-0.1111 0.1016 0.0000 ( 18639 PWs)   bands (ev):

[...]

          k =-0.4444 0.4062 0.0000 ( 18616 PWs)   bands (ev):

   -21.0147 -20.7301 -16.4461 -16.1923 -10.2734  -9.5079  -9.0199  -8.9137
    -7.6582  -6.8935  -6.6134  -6.2386  -5.3085  -4.9795  -4.1474  -3.6090
     3.0837   3.5068   4.7390   4.7949   4.8722   5.3878   5.4123   5.5061
     5.7352   6.1783   6.9099   7.2872   7.3410   7.6502

     highest occupied, lowest unoccupied level (ev):    -0.7580   -0.1077

!    total energy              =    -109.26346971 Ry
     estimated scf accuracy    <          1.7E-09 Ry

     The total energy is the sum of the following terms:
     one-electron contribution =    -351.78777242 Ry
     hartree contribution      =     183.88952347 Ry
     xc contribution           =     -36.80808341 Ry
     ewald contribution        =      95.44286265 Ry

     convergence has been achieved in  11 iterations

     Writing all to output data dir ./outdir/b2n2.save/

     General routines

     Parallel routines

   This run was terminated on:   1: 2:50  28May2023

   JOB DONE.