     Program PWSCF v.7.2 starts on 27May2023 at 15:49:50

     Reading input from 1.b2n2.scf.in

     Current dimensions of program PWSCF are:
     Max number of different atomic species (ntypx) = 10
     Max number of k-points (npk) =  40000
     Max angular momentum in pseudopotentials (lmaxx) =  4

     Subspace diagonalization in iterative solution of the eigenvalue problem:
     a serial algorithm will be used

     Using Slab Decomposition

     bravais-lattice index     =            8
     lattice parameter (alat)  =       8.6360  a.u.
     unit-cell volume          =     770.9972 (a.u.)^3
     number of atoms/cell      =            4
     number of atomic types    =            2
     number of electrons       =        16.00
     number of Kohn-Sham states=           20
     kinetic-energy cutoff     =      80.0000  Ry
     charge density cutoff     =     320.0000  Ry
     scf convergence threshold =      1.0E-08
     mixing beta               =       0.7000
     number of iterations used =            8  plain     mixing
     Exchange-correlation= PBE
                           (   1   4   3   4   0   0   0)

     celldm(1)=   8.636048  celldm(2)=   0.547046  celldm(3)=   2.188184
     celldm(4)=   0.000000  celldm(5)=   0.000000  celldm(6)=   0.000000

     crystal axes: (cart. coord. in units of alat)
               a(1) = (   1.000000   0.000000   0.000000 )
               a(2) = (   0.000000   0.547046   0.000000 )
               a(3) = (   0.000000   0.000000   2.188184 )

     reciprocal axes: (cart. coord. in units 2 pi/alat)
               b(1) = (  1.000000  0.000000  0.000000 )
               b(2) = (  0.000000  1.828000  0.000000 )
               b(3) = (  0.000000  0.000000  0.457000 )

     PseudoPot. # 1 for B  read from file:
     ../B_pbe_v1.01.uspp.F.UPF
     MD5 check sum: d081ebb89d0c768e112975f650467a00
     Pseudo is Ultrasoft + core correction, Zval =  3.0
     Generated by new atomic code, or converted to UPF format
     Using radial grid of  781 points,  4 beta functions with:
                l(1) =   0
                l(2) =   0
                l(3) =   1
                l(4) =   1
     Q(r) pseudized with  8 coefficients,  rinner =    1.100   1.100   1.100

     PseudoPot. # 2 for N  read from file:
     ../N.oncvpsp.upf
     MD5 check sum: 563d65bfb082928f0c9eb97172f6c357
     Pseudo is Norm-conserving + core correction, Zval =  5.0
     Generated using ONCVPSP code by D. R. Hamann
     Using radial grid of 1058 points,  4 beta functions with:
                l(1) =   0
                l(2) =   0
                l(3) =   1
                l(4) =   1

     atomic species   valence    mass     pseudopotential
        B              3.00    10.81100     B ( 1.00)
        N              5.00    14.00670     N ( 1.00)

      2 Sym. Ops. (no inversion) found

   Cartesian axes

     site n.     atom                  positions (alat units)
         1           B   tau(   1) = (   0.1859956   0.4093249   0.0000000  )
         2           B   tau(   2) = (   0.8161926   0.4093249   0.0000000  )
         3           N   tau(   3) = (   0.3435449   0.1367615   0.0000000  )
         4           N   tau(   4) = (   0.6586433   0.1367615   0.0000000  )

     number of k points=    13
                       cart. coord. in units 2pi/alat
        k(    1) = (   0.0000000   0.0000000   0.0000000), wk =   0.0800000
        k(    2) = (   0.0000000   0.3656000   0.0000000), wk =   0.1600000
        k(    3) = (   0.0000000   0.7312000   0.0000000), wk =   0.1600000
        k(    4) = (   0.2000000   0.0000000   0.0000000), wk =   0.1600000
        k(    5) = (   0.2000000   0.3656000   0.0000000), wk =   0.1600000
        k(    6) = (   0.2000000   0.7312000   0.0000000), wk =   0.1600000
        k(    7) = (   0.4000000   0.0000000   0.0000000), wk =   0.1600000
        k(    8) = (   0.4000000   0.3656000   0.0000000), wk =   0.1600000
        k(    9) = (   0.4000000   0.7312000   0.0000000), wk =   0.1600000
        k(   10) = (  -0.2000000   0.3656000   0.0000000), wk =   0.1600000
        k(   11) = (  -0.2000000   0.7312000   0.0000000), wk =   0.1600000
        k(   12) = (  -0.4000000   0.3656000   0.0000000), wk =   0.1600000
        k(   13) = (  -0.4000000   0.7312000   0.0000000), wk =   0.1600000

     Check: negative core charge=   -0.000004

     Initial potential from superposition of free atoms

     starting charge      15.9994, renormalised to      16.0000

     negative rho (up, down):  3.058E-08 0.000E+00
     Starting wfcs are   16 randomized atomic wfcs +    4 random wfcs

     Self-consistent Calculation

     iteration #  1     ecut=    80.00 Ry     beta= 0.70
     Davidson diagonalization with overlap
     ethr =  1.00E-02,  avg # of iterations =  8.6

     negative rho (up, down):  8.805E-08 0.000E+00

     total energy              =     -54.53718294 Ry
     estimated scf accuracy    <       0.46676335 Ry

[...]

     iteration #  5     ecut=    80.00 Ry     beta= 0.70
     Davidson diagonalization with overlap
     c_bands:  1 eigenvalues not converged
     ethr =  2.36E-06,  avg # of iterations = 13.6

[...]

     total energy              =     -54.63418010 Ry
     estimated scf accuracy    <       0.00000001 Ry

     iteration #  9     ecut=    80.00 Ry     beta= 0.70
     Davidson diagonalization with overlap
     ethr =  7.91E-11,  avg # of iterations =  1.5

     negative rho (up, down):  6.376E-06 0.000E+00

     End of self-consistent calculation

          k = 0.0000 0.0000 0.0000 (  9333 PWs)   bands (ev):

   -21.7704 -16.0744 -11.7987  -7.9690  -7.1290  -4.2556  -3.6085  -2.9662
     1.3774   2.1568   4.2736   4.5560   4.9149   7.4327   8.3901   9.0069
     9.4475   9.5704   9.6107  10.6592

[...]

          k = 0.4000 0.7312 0.0000 (  9291 PWs)   bands (ev):

[...]

          k =-0.2000 0.3656 0.0000 (  9302 PWs)   bands (ev):

[...]

          k =-0.4000 0.7312 0.0000 (  9291 PWs)   bands (ev):

   -20.1592 -15.6083 -11.8678  -9.1455  -9.0021  -5.4625  -4.2046  -2.0857
     1.4100   3.1321   3.5652   7.0694   8.3178   8.6846   9.3252   9.9294
     9.9485  11.0729  11.5389  12.1093

     highest occupied, lowest unoccupied level (ev):    -1.2433    0.3152

!    total energy              =     -54.63418010 Ry
     estimated scf accuracy    <          5.9E-10 Ry

     The total energy is the sum of the following terms:
     one-electron contribution =    -175.87302076 Ry
     hartree contribution      =      91.91775847 Ry
     xc contribution           =     -18.40034914 Ry
     ewald contribution        =      47.72143132 Ry

     convergence has been achieved in   9 iterations

     Writing all to output data dir ./outdir/b2n2.save/

     General routines

     Parallel routines

   This run was terminated on:  15:50:56  27May2023

   JOB DONE.